22
Lattice="40.0 0.0 0.0 0.0 20.0 0.0 0.0 0.0 20.0" Properties=species:S:1:pos:R:3:tags:I:1 pbc="T T T"
C       19.26038600      10.00000140       9.99996580       -1
C       18.53826200       8.79318840       9.92473000       -1
C       17.14094480       8.79307340       9.92485160       -1
C       16.43545520      10.00000180       9.99996720       -1
C       17.14094600      11.20693020      10.07508720       -1
C       18.53826400      11.20681580      10.07519880       -1
C       23.56375200       9.99999020       9.99999140       -1
C       22.85824560       9.08329100       9.21136700       -1
C       21.46094200       9.08326800       9.21155080       -1
C       20.73881480       9.99999080       9.99998680       -1
C       21.46093880      10.91671360      10.78842600       -1
C       22.85824320      10.91669240      10.78861020       -1
H       19.08203040       7.84197140       9.89269680       -1
H       16.59859440       7.84214720       9.87596060       -1
H       15.23925240      10.00000260       9.99997520       -1
H       16.59859440      12.15785220      10.12403180       -1
H       19.08202920      12.15803500      10.10724660       -1
H       24.65994800      10.00000180       9.99997940       -1
H       23.40062600       8.36810860       8.58278860       -1
H       20.91715640       8.37950480       8.57083540       -1
H       20.91715200      11.62050440      11.42911120       -1
H       23.40062320      11.63191540      11.41714220       -1
