 vasp.6.3.0 20Jan22 (build Mar  2 2022 11:13:05) complex                         
 executed on             LinuxGNU date 2024.04.24  16:49:48
 running    4 mpi-ranks, with    1 threads/rank
 distrk:  each k-point on    4 cores,    1 groups
 distr:  one band on NCORE=   1 cores,    4 groups


--------------------------------------------------------------------------------------------------------


 INCAR:
   ENCUT = 315.000000
   EDIFF = 1.00e-05
   SYMPREC = 1.00e-05
   GGA = PE
   PREC = Accurate
   IBRION = 2
   ISIF = 2
   ISYM = 0
   NSW = 100
   IVDW = 12
   LREAL = .FALSE.

 POTCAR:    PAW_PBE C 08Apr2002                   
 POTCAR:    PAW_PBE H 15Jun2001                   
 POTCAR:    PAW_PBE C 08Apr2002                   
   SHA256 =  253f7b50bb8d59471dbedb8285d89021f4a42ed1a2c5d38a03a736e69125dd95 C/POTCAR              
   COPYR  = (c) Copyright 08Apr2002 Georg Kresse                                                    
   COPYR  = This file is part of the software VASP. Any use, copying, and all other rights are regul
   COPYR  = If you do not have a valid VASP license, you may not use, copy or distribute this file. 
   VRHFIN =C: s2p2                                                                                  
   LEXCH  = PE                                                                                      
   EATOM  =   147.1560 eV,   10.8157 Ry                                                             
                                                                                                    
   TITEL  = PAW_PBE C 08Apr2002                                                                     
   LULTRA =        F    use ultrasoft PP ?                                                          
   IUNSCR =        1    unscreen: 0-lin 1-nonlin 2-no                                               
   RPACOR =    1.200    partial core radius                                                         
   POMASS =   12.011; ZVAL   =    4.000    mass and valenz                                          
   RCORE  =    1.500    outmost cutoff radius                                                       
   RWIGS  =    1.630; RWIGS  =    0.863    wigner-seitz radius (au A)                               
   ENMAX  =  400.000; ENMIN  =  300.000 eV                                                          
   ICORE  =        2    local potential                                                             
   LCOR   =        T    correct aug charges                                                         
   LPAW   =        T    paw PP                                                                      
   EAUG   =  644.873                                                                                
   DEXC   =    0.000                                                                                
   RMAX   =    1.529    core radius for proj-oper                                                   
   RAUG   =    1.300    factor for augmentation sphere                                              
   RDEP   =    1.501    radius for radial grids                                                     
   RDEPT  =    1.300    core radius for aug-charge                                                  
                                                                                                    
   Atomic configuration                                                                             
    4 entries                                                                                       
     n  l   j            E        occ.                                                              
     1  0  0.50      -273.3789   2.0000                                                             
     2  0  0.50       -13.7508   2.0000                                                             
     2  1  0.50        -5.2854   2.0000                                                             
     3  2  1.50        -5.4423   0.0000                                                             
   Description                                                                                      
     l       E           TYP  RCUT    TYP  RCUT                                                     
     0    -13.7508458     23  1.200                                                                 
     0     -8.2022199     23  1.200                                                                 
     1     -5.2854383     23  1.500                                                                 
     1     34.0145650     23  1.500                                                                 
     2     -5.4423304      7  1.500                                                                 
  local pseudopotential read in
  partial core-charges read in
  partial kinetic energy density read in
  atomic valenz-charges read in
  non local Contribution for L=           0  read in
    real space projection operators read in
  non local Contribution for L=           0  read in
    real space projection operators read in
  non local Contribution for L=           1  read in
    real space projection operators read in
  non local Contribution for L=           1  read in
    real space projection operators read in
    PAW grid and wavefunctions read in

   number of l-projection  operators is LMAX  =           4
   number of lm-projection operators is LMMAX =           8

 POTCAR:    PAW_PBE H 15Jun2001                   
   SHA256 =  030f79b5d3ab3cf0e668861823c8fb652ff669f3e15e46930bd03bfd63a607b6 H/POTCAR              
   COPYR  = (c) Copyright 15Jun2001 Georg Kresse                                                    
   COPYR  = This file is part of the software VASP. Any use, copying, and all other rights are regul
   COPYR  = If you do not have a valid VASP license, you may not use, copy or distribute this file. 
   VRHFIN =H: ultrasoft test                                                                        
   LEXCH  = PE                                                                                      
   EATOM  =    12.4884 eV,    0.9179 Ry                                                             
                                                                                                    
   TITEL  = PAW_PBE H 15Jun2001                                                                     
   LULTRA =        F    use ultrasoft PP ?                                                          
   IUNSCR =        0    unscreen: 0-lin 1-nonlin 2-no                                               
   RPACOR =    0.000    partial core radius                                                         
   POMASS =    1.000; ZVAL   =    1.000    mass and valenz                                          
   RCORE  =    1.100    outmost cutoff radius                                                       
   RWIGS  =    0.700; RWIGS  =    0.370    wigner-seitz radius (au A)                               
   ENMAX  =  250.000; ENMIN  =  200.000 eV                                                          
   RCLOC  =    0.701    cutoff for local pot                                                        
   LCOR   =        T    correct aug charges                                                         
   LPAW   =        T    paw PP                                                                      
   EAUG   =  400.000                                                                                
   RMAX   =    1.123    core radius for proj-oper                                                   
   RAUG   =    1.200    factor for augmentation sphere                                              
   RDEP   =    1.112    radius for radial grids                                                     
   RDEPT  =    0.926    core radius for aug-charge                                                  
                                                                                                    
   Atomic configuration                                                                             
    2 entries                                                                                       
     n  l   j            E        occ.                                                              
     1  0  0.50        -6.4927   1.0000                                                             
     2  1  0.50        -3.4015   0.0000                                                             
   Description                                                                                      
     l       E           TYP  RCUT    TYP  RCUT                                                     
     0     -6.4927494     23  1.100                                                                 
     0      6.8029130     23  1.100                                                                 
     1     -4.0817478     23  1.100                                                                 
  local pseudopotential read in
  atomic valenz-charges read in
  non local Contribution for L=           0  read in
    real space projection operators read in
  non local Contribution for L=           0  read in
    real space projection operators read in
  non local Contribution for L=           1  read in
    real space projection operators read in
    PAW grid and wavefunctions read in

   number of l-projection  operators is LMAX  =           3
   number of lm-projection operators is LMMAX =           5

 -----------------------------------------------------------------------------
|                                                                             |
|               ----> ADVICE to this user running VASP <----                  |
|                                                                             |
|     You have a (more or less) 'large supercell' and for larger cells it     |
|     might be more efficient to use real-space projection operators.         |
|     Therefore, try LREAL= Auto in the INCAR file.                           |
|     Mind: For very accurate calculation, you might also keep the            |
|     reciprocal projection scheme (i.e. LREAL=.FALSE.).                      |
|                                                                             |
 -----------------------------------------------------------------------------

  PAW_PBE C 08Apr2002                   :
 energy of atom  1       EATOM= -147.1560
 kinetic energy error for atom=    0.1884 (will be added to EATOM!!)
  PAW_PBE H 15Jun2001                   :
 energy of atom  2       EATOM=  -12.4884
 kinetic energy error for atom=    0.0344 (will be added to EATOM!!)


 POSCAR: C  H
  positions in cartesian coordinates
  No initial velocities read in
 exchange correlation table for  LEXCH =        8
   RHO(1)=    0.500       N(1)  =     2000
   RHO(2)=  100.500       N(2)  =     4000



--------------------------------------------------------------------------------------------------------


 ion  position               nearest neighbor table
   1  0.481  0.500  0.500-   6 1.41   2 1.41  10 1.48
   2  0.463  0.440  0.496-  13 1.09   3 1.39   1 1.41
   3  0.429  0.440  0.496-  14 1.09   2 1.39   4 1.40
   4  0.411  0.500  0.500-  15 1.09   5 1.40   3 1.40
   5  0.429  0.560  0.504-  16 1.09   6 1.39   4 1.40
   6  0.463  0.560  0.504-  17 1.09   5 1.39   1 1.41
   7  0.589  0.500  0.500-  18 1.09   8 1.40  12 1.40
   8  0.571  0.454  0.461-  19 1.09   9 1.39   7 1.40
   9  0.537  0.454  0.461-  20 1.09   8 1.39  10 1.41
  10  0.518  0.500  0.500-   9 1.41  11 1.41   1 1.48
  11  0.537  0.546  0.539-  21 1.09  12 1.39  10 1.41
  12  0.571  0.546  0.539-  22 1.09  11 1.39   7 1.40
  13  0.477  0.392  0.495-   2 1.09
  14  0.415  0.392  0.494-   3 1.09
  15  0.384  0.500  0.500-   4 1.09
  16  0.415  0.608  0.506-   5 1.09
  17  0.477  0.608  0.505-   6 1.09
  18  0.616  0.500  0.500-   7 1.09
  19  0.585  0.419  0.429-   8 1.09
  20  0.523  0.419  0.429-   9 1.09
  21  0.523  0.581  0.571-  11 1.09
  22  0.585  0.581  0.571-  12 1.09


IMPORTANT INFORMATION: All symmetrisations will be switched off!
NOSYMM: (Re-)initialisation of all symmetry stuff for point group C_1.


----------------------------------------------------------------------------------------

                                     Primitive cell                                     

  volume of cell :   16000.0000

  direct lattice vectors                    reciprocal lattice vectors
    40.000000000  0.000000000  0.000000000     0.025000000  0.000000000  0.000000000
     0.000000000 20.000000000  0.000000000     0.000000000  0.050000000  0.000000000
     0.000000000  0.000000000 20.000000000     0.000000000  0.000000000  0.050000000

  length of vectors
    40.000000000 20.000000000 20.000000000     0.025000000  0.050000000  0.050000000

  position of ions in fractional coordinates (direct lattice)
     0.481487656  0.500000217  0.499998086
     0.463423924  0.439795380  0.496255064
     0.428552903  0.439775936  0.496265696
     0.410945418  0.500000243  0.499998236
     0.428553034  0.560224246  0.503730860
     0.463423910  0.560204824  0.503741006
     0.589034083  0.499999329  0.499999818
     0.571426686  0.454260148  0.460643557
     0.536555882  0.454264341  0.460668188
     0.518492307  0.499999366  0.499999539
     0.536555773  0.545734395  0.539331311
     0.571426700  0.545738903  0.539355758
     0.476953509  0.392443357  0.494641431
     0.415049703  0.392433215  0.493817030
     0.383675319  0.500000101  0.499998650
     0.415049653  0.607566625  0.506183345
     0.476953422  0.607557085  0.505355717
     0.616304609  0.500000137  0.499998869
     0.584930248  0.418646848  0.429353146
     0.523027617  0.419220864  0.428778025
     0.523027530  0.580779812  0.571219038
     0.584930116  0.581354629  0.570642630

  ion indices of the primitive-cell ions
   primitive index   ion index
                 1           1
                 2           2
                 3           3
                 4           4
                 5           5
                 6           6
                 7           7
                 8           8
                 9           9
                10          10
                11          11
                12          12
                13          13
                14          14
                15          15
                16          16
                17          17
                18          18
                19          19
                20          20
                21          21
                22          22

----------------------------------------------------------------------------------------



 KPOINTS: KPOINTS created by Atomic Simulation Env

Automatic generation of k-mesh.
 Grid dimensions read from file:
 generate k-points for:    1    1    1

 Generating k-lattice:

  Cartesian coordinates                     Fractional coordinates (reciprocal lattice)
     0.025000000  0.000000000  0.000000000     1.000000000  0.000000000  0.000000000
     0.000000000  0.050000000  0.000000000     0.000000000  1.000000000  0.000000000
     0.000000000  0.000000000  0.050000000     0.000000000  0.000000000  1.000000000

  Length of vectors
     0.025000000  0.050000000  0.050000000

  Shift w.r.t. Gamma in fractional coordinates (k-lattice)
     0.000000000  0.000000000  0.000000000

 
 Subroutine IBZKPT returns following result:
 ===========================================
 
 Found      1 irreducible k-points:
 
 Following reciprocal coordinates:
            Coordinates               Weight
  0.000000  0.000000  0.000000      1.000000
 
 Following cartesian coordinates:
            Coordinates               Weight
  0.000000  0.000000  0.000000      1.000000
 


--------------------------------------------------------------------------------------------------------




 Dimension of arrays:
   k-points           NKPTS =      1   k-points in BZ     NKDIM =      1   number of bands    NBANDS=     44
   number of dos      NEDOS =    301   number of ions     NIONS =     22
   non local maximal  LDIM  =      4   non local SUM 2l+1 LMDIM =      8
   total plane-waves  NPLWV = ******
   max r-space proj   IRMAX =      1   max aug-charges    IRDMAX=   2748
   dimension x,y,z NGX =   240 NGY =  120 NGZ =  120
   dimension x,y,z NGXF=   480 NGYF=  240 NGZF=  240
   support grid    NGXF=   480 NGYF=  240 NGZF=  240
   ions per type =              12  10
   NGX,Y,Z   is equivalent  to a cutoff of   9.97,  9.97,  9.97 a.u.
   NGXF,Y,Z  is equivalent  to a cutoff of  19.95, 19.95, 19.95 a.u.

 SYSTEM =  unknown system                          
 POSCAR =  C  H                                    

 Startparameter for this run:
   NWRITE =      2    write-flag & timer
   PREC   = accura    normal or accurate (medium, high low for compatibility)
   ISTART =      0    job   : 0-new  1-cont  2-samecut
   ICHARG =      2    charge: 1-file 2-atom 10-const
   ISPIN  =      1    spin polarized calculation?
   LNONCOLLINEAR =      F non collinear calculations
   LSORBIT =      F    spin-orbit coupling
   INIWAV =      1    electr: 0-lowe 1-rand  2-diag
   LASPH  =      F    aspherical Exc in radial PAW
 Electronic Relaxation 1
   ENCUT  =  315.0 eV  23.15 Ry    4.81 a.u.  57.89 28.94 28.94*2*pi/ulx,y,z
   ENINI  =  315.0     initial cutoff
   ENAUG  =  644.9 eV  augmentation charge cutoff
   NELM   =     60;   NELMIN=  2; NELMDL= -5     # of ELM steps 
   EDIFF  = 0.1E-04   stopping-criterion for ELM
   LREAL  =      F    real-space projection
   NLSPLINE    = F    spline interpolate recip. space projectors
   LCOMPAT=      F    compatible to vasp.4.4
   GGA_COMPAT  = T    GGA compatible to vasp.4.4-vasp.4.6
   LMAXPAW     = -100 max onsite density
   LMAXMIX     =    2 max onsite mixed and CHGCAR
   VOSKOWN=      0    Vosko Wilk Nusair interpolation
   ROPT   =    0.00000   0.00000
 Ionic relaxation
   EDIFFG = 0.1E-03   stopping-criterion for IOM
   NSW    =    100    number of steps for IOM
   NBLOCK =      1;   KBLOCK =    100    inner block; outer block 
   IBRION =      2    ionic relax: 0-MD 1-quasi-New 2-CG
   NFREE  =      1    steps in history (QN), initial steepest desc. (CG)
   ISIF   =      2    stress and relaxation
   IWAVPR =     11    prediction:  0-non 1-charg 2-wave 3-comb
   ISYM   =      0    0-nonsym 1-usesym 2-fastsym
   LCORR  =      T    Harris-Foulkes like correction to forces

   POTIM  = 0.5000    time-step for ionic-motion
   TEIN   =    0.0    initial temperature
   TEBEG  =    0.0;   TEEND  =   0.0 temperature during run
   SMASS  =  -3.00    Nose mass-parameter (am)
   estimated Nose-frequenzy (Omega)   =  0.10E-29 period in steps = 0.13E+47 mass=  -0.366E-25a.u.
   SCALEE = 1.0000    scale energy and forces
   NPACO  =    256;   APACO  = 10.0  distance and # of slots for P.C.
   PSTRESS=    0.0 pullay stress

  Mass of Ions in am
   POMASS =  12.01  1.00
  Ionic Valenz
   ZVAL   =   4.00  1.00
  Atomic Wigner-Seitz radii
   RWIGS  =  -1.00 -1.00
  virtual crystal weights 
   VCA    =   1.00  1.00
   NELECT =      58.0000    total number of electrons
   NUPDOWN=      -1.0000    fix difference up-down

 DOS related values:
   EMIN   =  10.00;   EMAX   =-10.00  energy-range for DOS
   EFERMI =   0.00
   ISMEAR =     1;   SIGMA  =   0.20  broadening in eV -4-tet -1-fermi 0-gaus

 Electronic relaxation 2 (details)
   IALGO  =     38    algorithm
   LDIAG  =      T    sub-space diagonalisation (order eigenvalues)
   LSUBROT=      F    optimize rotation matrix (better conditioning)
   TURBO    =      0    0=normal 1=particle mesh
   IRESTART =      0    0=no restart 2=restart with 2 vectors
   NREBOOT  =      0    no. of reboots
   NMIN     =      0    reboot dimension
   EREF     =   0.00    reference energy to select bands
   IMIX   =      4    mixing-type and parameters
     AMIX     =   0.40;   BMIX     =  1.00
     AMIX_MAG =   1.60;   BMIX_MAG =  1.00
     AMIN     =   0.10
     WC   =   100.;   INIMIX=   1;  MIXPRE=   1;  MAXMIX= -45

 Intra band minimization:
   WEIMIN = 0.0010     energy-eigenvalue tresh-hold
   EBREAK =  0.57E-07  absolut break condition
   DEPER  =   0.30     relativ break condition  

   TIME   =   0.40     timestep for ELM

  volume/ion in A,a.u.               =     727.27      4907.88
  Fermi-wavevector in a.u.,A,eV,Ry     =   0.251484  0.475236  0.860491  0.063244
  Thomas-Fermi vector in A             =   1.069324

 Write flags
   LWAVE        =      T    write WAVECAR
   LDOWNSAMPLE  =      F    k-point downsampling of WAVECAR
   LCHARG       =      T    write CHGCAR
   LVTOT        =      F    write LOCPOT, total local potential
   LVHAR        =      F    write LOCPOT, Hartree potential only
   LELF         =      F    write electronic localiz. function (ELF)
   LORBIT       =      0    0 simple, 1 ext, 2 COOP (PROOUT), +10 PAW based schemes


 Dipole corrections
   LMONO  =      F    monopole corrections only (constant potential shift)
   LDIPOL =      F    correct potential (dipole corrections)
   IDIPOL =      0    1-x, 2-y, 3-z, 4-all directions 
   EPSILON=  1.0000000 bulk dielectric constant

 Exchange correlation treatment:
   GGA     =    PE    GGA type
   LEXCH   =     8    internal setting for exchange type
   LIBXC   =     F    Libxc                    
   VOSKOWN =     0    Vosko Wilk Nusair interpolation
   LHFCALC =     F    Hartree Fock is set to
   LHFONE  =     F    Hartree Fock one center treatment
   AEXX    =    0.0000 exact exchange contribution

 Linear response parameters
   LEPSILON=     F    determine dielectric tensor
   LRPA    =     F    only Hartree local field effects (RPA)
   LNABLA  =     F    use nabla operator in PAW spheres
   LVEL    =     F    velocity operator in full k-point grid
   CSHIFT  =0.1000    complex shift for real part using Kramers Kronig
   OMEGAMAX=  -1.0    maximum frequency
   DEG_THRESHOLD= 0.2000000E-02 threshold for treating states as degnerate
   RTIME   =   -0.100 relaxation time in fs
  (WPLASMAI=    0.000 imaginary part of plasma frequency in eV, 0.658/RTIME)
   DFIELD  = 0.0000000 0.0000000 0.0000000 field for delta impulse in time

  Optional k-point grid parameters
   LKPOINTS_OPT  =     F    use optional k-point grid
   KPOINTS_OPT_MODE=     1    mode for optional k-point grid

 Orbital magnetization related:
   ORBITALMAG=     F  switch on orbital magnetization
   LCHIMAG   =     F  perturbation theory with respect to B field
   DQ        =  0.001000  dq finite difference perturbation B field
   LLRAUG    =     F  two centre corrections for induced B field



--------------------------------------------------------------------------------------------------------


 conjugate gradient relaxation of ions
 charge density and potential will be updated during run
 non-spin polarized calculation
 Variant of blocked Davidson
 Davidson routine will perform the subspace rotation
 perform sub-space diagonalisation
    after iterative eigenvector-optimisation
 modified Broyden-mixing scheme, WC =      100.0
 initial mixing is a Kerker type mixing with AMIX =  0.4000 and BMIX =      1.0000
 Hartree-type preconditioning will be used
 using additional bands           15
 reciprocal scheme for non local part
 use partial core corrections
 calculate Harris-corrections to forces   (improved forces if not selfconsistent)
 use gradient corrections 
 use of overlap-Matrix (Vanderbilt PP)
 Methfessel and Paxton  Order N= 1 SIGMA  =   0.20


--------------------------------------------------------------------------------------------------------


  energy-cutoff  :      315.00
  volume of cell :    16000.00
      direct lattice vectors                 reciprocal lattice vectors
    40.000000000  0.000000000  0.000000000     0.025000000  0.000000000  0.000000000
     0.000000000 20.000000000  0.000000000     0.000000000  0.050000000  0.000000000
     0.000000000  0.000000000 20.000000000     0.000000000  0.000000000  0.050000000

  length of vectors
    40.000000000 20.000000000 20.000000000     0.025000000  0.050000000  0.050000000



 k-points in units of 2pi/SCALE and weight: KPOINTS created by Atomic Simulation Env
   0.00000000  0.00000000  0.00000000       1.000

 k-points in reciprocal lattice and weights: KPOINTS created by Atomic Simulation Env
   0.00000000  0.00000000  0.00000000       1.000

 position of ions in fractional coordinates (direct lattice) 
   0.48148766  0.50000022  0.49999809
   0.46342392  0.43979538  0.49625506
   0.42855290  0.43977594  0.49626570
   0.41094542  0.50000024  0.49999824
   0.42855303  0.56022425  0.50373086
   0.46342391  0.56020482  0.50374101
   0.58903408  0.49999933  0.49999982
   0.57142669  0.45426015  0.46064356
   0.53655588  0.45426434  0.46066819
   0.51849231  0.49999937  0.49999954
   0.53655577  0.54573439  0.53933131
   0.57142670  0.54573890  0.53935576
   0.47695351  0.39244336  0.49464143
   0.41504970  0.39243321  0.49381703
   0.38367532  0.50000010  0.49999865
   0.41504965  0.60756662  0.50618335
   0.47695342  0.60755708  0.50535572
   0.61630461  0.50000014  0.49999887
   0.58493025  0.41864685  0.42935315
   0.52302762  0.41922086  0.42877802
   0.52302753  0.58077981  0.57121904
   0.58493012  0.58135463  0.57064263

 position of ions in cartesian coordinates  (Angst):
  19.25950624 10.00000434  9.99996172
  18.53695694  8.79590760  9.92510128
  17.14211614  8.79551871  9.92531393
  16.43781671 10.00000486  9.99996472
  17.14212136 11.20448493 10.07461721
  18.53695639 11.20409647 10.07482012
  23.56136331  9.99998657  9.99999636
  22.85706744  9.08520297  9.21287113
  21.46223527  9.08528681  9.21336376
  20.73969230  9.99998732  9.99999078
  21.46223090 10.91468789 10.78662622
  22.85706799 10.91477806 10.78711516
  19.07814036  7.84886713  9.89282863
  16.60198813  7.84866429  9.87634059
  15.34701274 10.00000202  9.99997301
  16.60198612 12.15133250 10.12366691
  19.07813689 12.15114169 10.10711434
  24.65218434 10.00000274  9.99997738
  23.39720992  8.37293696  8.58706291
  20.92110466  8.38441729  8.57556050
  20.92110119 11.61559625 11.42438075
  23.39720465 11.62709258 11.41285260



--------------------------------------------------------------------------------------------------------


 k-point   1 :   0.0000 0.0000 0.0000  plane waves:  203075

 maximum and minimum number of plane-waves per node :    203075   203075

 maximum number of plane-waves:    203075
 maximum index in each direction: 
   IXMAX=   57   IYMAX=   28   IZMAX=   28
   IXMIN=  -57   IYMIN=  -28   IZMIN=  -28


 serial   3D FFT for wavefunctions
 parallel 3D FFT for charge:
    minimum data exchange during FFTs selected (reduces bandwidth)


 total amount of memory used by VASP MPI-rank0   939003. kBytes
=======================================================================

   base      :      30000. kBytes
   nonl-proj :      97476. kBytes
   fftplans  :     247617. kBytes
   grid      :     528076. kBytes
   one-center:         67. kBytes
   wavefun   :      35767. kBytes

     INWAV:  cpu time      0.0000: real time      0.0000
 Broyden mixing: mesh for mixing (old mesh)
   NGX =115   NGY = 57   NGZ = 57
  (NGX  =480   NGY  =240   NGZ  =240)
  gives a total of 373635 points

 initial charge density was supplied:
 charge density of overlapping atoms calculated
 number of electron      58.0000000 magnetization 
 keeping initial charge density in first step


--------------------------------------------------------------------------------------------------------


 Maximum index for augmentation-charges          634 (set IRDMAX)


--------------------------------------------------------------------------------------------------------


 First call to EWALD:  gamma=   0.070
 Maximum number of real-space cells 2x 3x 3
 Maximum number of reciprocal cells 4x 2x 2

    FEWALD:  cpu time      0.0012: real time      0.0012


--------------------------------------- Iteration      1(   1)  ---------------------------------------


    POTLOK:  cpu time      3.3421: real time      3.3535
    SETDIJ:  cpu time      0.0039: real time      0.0039
     EDDAV:  cpu time     13.0472: real time     13.0498
       DOS:  cpu time      0.0003: real time      0.0003
    --------------------------------------------
      LOOP:  cpu time     16.3936: real time     16.4075

 eigenvalue-minimisations  :   120
 total energy-change (2. order) : 0.3983444E+03  (-0.1010083E+04)
 number of electron      58.0000000 magnetization 
 augmentation part       58.0000000 magnetization 

 Free energy of the ion-electron system (eV)
  ---------------------------------------------------
  alpha Z        PSCENC =         0.98165661
  Ewald energy   TEWEN  =      5861.30947656
  -Hartree energ DENC   =     -7081.42163939
  -exchange      EXHF   =         0.00000000
  -V(xc)+E(xc)   XCENC  =       178.68610712
  PAW double counting   =      1323.60483092    -1330.52647847
  entropy T*S    EENTRO =        -0.00173987
  eigenvalues    EBANDS =      -442.43909041
  atomic energy  EATOM  =      1888.15124511
  Solvation  Ediel_sol  =         0.00000000
  ---------------------------------------------------
  free energy    TOTEN  =       398.34436819 eV

  energy without entropy =      398.34610805  energy(sigma->0) =      398.34494814


--------------------------------------------------------------------------------------------------------




--------------------------------------- Iteration      1(   2)  ---------------------------------------


     EDDAV:  cpu time     14.9878: real time     15.0100
       DOS:  cpu time      0.0009: real time      0.0009
    --------------------------------------------
      LOOP:  cpu time     14.9887: real time     15.0109

 eigenvalue-minimisations  :   144
 total energy-change (2. order) :-0.2795890E+03  (-0.2669728E+03)
 number of electron      58.0000000 magnetization 
 augmentation part       58.0000000 magnetization 

 Free energy of the ion-electron system (eV)
  ---------------------------------------------------
  alpha Z        PSCENC =         0.98165661
  Ewald energy   TEWEN  =      5861.30947656
  -Hartree energ DENC   =     -7081.42163939
  -exchange      EXHF   =         0.00000000
  -V(xc)+E(xc)   XCENC  =       178.68610712
  PAW double counting   =      1323.60483092    -1330.52647847
  entropy T*S    EENTRO =         0.01063689
  eigenvalues    EBANDS =      -722.04050175
  atomic energy  EATOM  =      1888.15124511
  Solvation  Ediel_sol  =         0.00000000
  ---------------------------------------------------
  free energy    TOTEN  =       118.75533360 eV

  energy without entropy =      118.74469672  energy(sigma->0) =      118.75178798


--------------------------------------------------------------------------------------------------------




--------------------------------------- Iteration      1(   3)  ---------------------------------------


     EDDAV:  cpu time     14.4266: real time     14.4298
       DOS:  cpu time      0.0008: real time      0.0008
    --------------------------------------------
      LOOP:  cpu time     14.4274: real time     14.4306

 eigenvalue-minimisations  :   136
 total energy-change (2. order) :-0.2276111E+03  (-0.2248422E+03)
 number of electron      58.0000000 magnetization 
 augmentation part       58.0000000 magnetization 

 Free energy of the ion-electron system (eV)
  ---------------------------------------------------
  alpha Z        PSCENC =         0.98165661
  Ewald energy   TEWEN  =      5861.30947656
  -Hartree energ DENC   =     -7081.42163939
  -exchange      EXHF   =         0.00000000
  -V(xc)+E(xc)   XCENC  =       178.68610712
  PAW double counting   =      1323.60483092    -1330.52647847
  entropy T*S    EENTRO =         0.01159581
  eigenvalues    EBANDS =      -949.65252580
  atomic energy  EATOM  =      1888.15124511
  Solvation  Ediel_sol  =         0.00000000
  ---------------------------------------------------
  free energy    TOTEN  =      -108.85573152 eV

  energy without entropy =     -108.86732733  energy(sigma->0) =     -108.85959679


--------------------------------------------------------------------------------------------------------




--------------------------------------- Iteration      1(   4)  ---------------------------------------


     EDDAV:  cpu time     13.0216: real time     13.0223
       DOS:  cpu time      0.0007: real time      0.0007
    --------------------------------------------
      LOOP:  cpu time     13.0222: real time     13.0230

 eigenvalue-minimisations  :   120
 total energy-change (2. order) :-0.4903937E+02  (-0.4898601E+02)
 number of electron      58.0000000 magnetization 
 augmentation part       58.0000000 magnetization 

 Free energy of the ion-electron system (eV)
  ---------------------------------------------------
  alpha Z        PSCENC =         0.98165661
  Ewald energy   TEWEN  =      5861.30947656
  -Hartree energ DENC   =     -7081.42163939
  -exchange      EXHF   =         0.00000000
  -V(xc)+E(xc)   XCENC  =       178.68610712
  PAW double counting   =      1323.60483092    -1330.52647847
  entropy T*S    EENTRO =         0.01159609
  eigenvalues    EBANDS =      -998.69189858
  atomic energy  EATOM  =      1888.15124511
  Solvation  Ediel_sol  =         0.00000000
  ---------------------------------------------------
  free energy    TOTEN  =      -157.89510402 eV

  energy without entropy =     -157.90670012  energy(sigma->0) =     -157.89896939


--------------------------------------------------------------------------------------------------------




--------------------------------------- Iteration      1(   5)  ---------------------------------------


     EDDAV:  cpu time     13.0261: real time     13.0269
       DOS:  cpu time      0.0008: real time      0.0008
    CHARGE:  cpu time      0.9545: real time      0.9546
    MIXING:  cpu time      0.0811: real time      0.0811
    --------------------------------------------
      LOOP:  cpu time     14.0625: real time     14.0634

 eigenvalue-minimisations  :   120
 total energy-change (2. order) :-0.9941565E+00  (-0.9893391E+00)
 number of electron      58.0000012 magnetization 
 augmentation part        1.4380679 magnetization 

 Broyden mixing:
  rms(total) = 0.18563E+01    rms(broyden)= 0.18553E+01
  rms(prec ) = 0.19024E+01
  weight for this iteration     100.00

 Free energy of the ion-electron system (eV)
  ---------------------------------------------------
  alpha Z        PSCENC =         0.98165661
  Ewald energy   TEWEN  =      5861.30947656
  -Hartree energ DENC   =     -7081.42163939
  -exchange      EXHF   =         0.00000000
  -V(xc)+E(xc)   XCENC  =       178.68610712
  PAW double counting   =      1323.60483092    -1330.52647847
  entropy T*S    EENTRO =         0.01159655
  eigenvalues    EBANDS =      -999.68605549
  atomic energy  EATOM  =      1888.15124511
  Solvation  Ediel_sol  =         0.00000000
  ---------------------------------------------------
  free energy    TOTEN  =      -158.88926047 eV

  energy without entropy =     -158.90085702  energy(sigma->0) =     -158.89312599


--------------------------------------------------------------------------------------------------------




--------------------------------------- Iteration      1(   6)  ---------------------------------------


    POTLOK:  cpu time      3.1216: real time      3.1218
    SETDIJ:  cpu time      0.0038: real time      0.0038
     EDDAV:  cpu time     11.6803: real time     11.6809
       DOS:  cpu time      0.0010: real time      0.0010
    CHARGE:  cpu time      1.0028: real time      1.0028
    MIXING:  cpu time      0.0847: real time      0.0847
    --------------------------------------------
      LOOP:  cpu time     15.8941: real time     15.8949

 eigenvalue-minimisations  :   104
 total energy-change (2. order) : 0.1047501E+02  (-0.1292903E+01)
 number of electron      58.0000013 magnetization 
 augmentation part        1.3572568 magnetization 

 Broyden mixing:
  rms(total) = 0.10208E+01    rms(broyden)= 0.10206E+01
  rms(prec ) = 0.10428E+01
  weight for this iteration     100.00

 eigenvalues of (default mixing * dielectric matrix)
  average eigenvalue GAMMA=   1.8656
  1.8656

 Free energy of the ion-electron system (eV)
  ---------------------------------------------------
  alpha Z        PSCENC =         0.98165661
  Ewald energy   TEWEN  =      5861.30947656
  -Hartree energ DENC   =     -7195.15771991
  -exchange      EXHF   =         0.00000000
  -V(xc)+E(xc)   XCENC  =       183.77799367
  PAW double counting   =      2429.13831166    -2436.91547054
  entropy T*S    EENTRO =         0.01160084
  eigenvalues    EBANDS =      -879.71134183
  atomic energy  EATOM  =      1888.15124511
  Solvation  Ediel_sol  =         0.00000000
  ---------------------------------------------------
  free energy    TOTEN  =      -148.41424783 eV

  energy without entropy =     -148.42584867  energy(sigma->0) =     -148.41811478


--------------------------------------------------------------------------------------------------------




--------------------------------------- Iteration      1(   7)  ---------------------------------------


    POTLOK:  cpu time      3.1083: real time      3.1084
    SETDIJ:  cpu time      0.0032: real time      0.0032
     EDDAV:  cpu time     12.0180: real time     12.0187
       DOS:  cpu time      0.0011: real time      0.0011
    CHARGE:  cpu time      1.0185: real time      1.0186
    MIXING:  cpu time      0.0865: real time      0.0865
    --------------------------------------------
      LOOP:  cpu time     16.2356: real time     16.2365

 eigenvalue-minimisations  :   108
 total energy-change (2. order) : 0.3235297E+01  (-0.1125548E+01)
 number of electron      58.0000013 magnetization 
 augmentation part        1.2789785 magnetization 

 Broyden mixing:
  rms(total) = 0.37201E+00    rms(broyden)= 0.37147E+00
  rms(prec ) = 0.37664E+00
  weight for this iteration     100.00

 eigenvalues of (default mixing * dielectric matrix)
  average eigenvalue GAMMA=   1.9893
  1.9893  1.9893

 Free energy of the ion-electron system (eV)
  ---------------------------------------------------
  alpha Z        PSCENC =         0.98165661
  Ewald energy   TEWEN  =      5861.30947656
  -Hartree energ DENC   =     -7312.78418570
  -exchange      EXHF   =         0.00000000
  -V(xc)+E(xc)   XCENC  =       189.38325242
  PAW double counting   =      4144.06052541    -4152.33557485
  entropy T*S    EENTRO =         0.01159611
  eigenvalues    EBANDS =      -763.95694297
  atomic energy  EATOM  =      1888.15124511
  Solvation  Ediel_sol  =         0.00000000
  ---------------------------------------------------
  free energy    TOTEN  =      -145.17895130 eV

  energy without entropy =     -145.19054741  energy(sigma->0) =     -145.18281667


--------------------------------------------------------------------------------------------------------




--------------------------------------- Iteration      1(   8)  ---------------------------------------


    POTLOK:  cpu time      3.1238: real time      3.1240
    SETDIJ:  cpu time      0.0032: real time      0.0032
     EDDAV:  cpu time     12.3586: real time     12.3594
       DOS:  cpu time      0.0010: real time      0.0010
    CHARGE:  cpu time      1.1110: real time      1.1110
    MIXING:  cpu time      0.0880: real time      0.0880
    --------------------------------------------
      LOOP:  cpu time     16.6855: real time     16.6865

 eigenvalue-minimisations  :   112
 total energy-change (2. order) : 0.2331575E+00  (-0.6670809E-01)
 number of electron      58.0000013 magnetization 
 augmentation part        1.2772527 magnetization 

 Broyden mixing:
  rms(total) = 0.64119E-01    rms(broyden)= 0.64056E-01
  rms(prec ) = 0.71838E-01
  weight for this iteration     100.00

 eigenvalues of (default mixing * dielectric matrix)
  average eigenvalue GAMMA=   1.7407
  2.4221  1.2031  1.5970

 Free energy of the ion-electron system (eV)
  ---------------------------------------------------
  alpha Z        PSCENC =         0.98165661
  Ewald energy   TEWEN  =      5861.30947656
  -Hartree energ DENC   =     -7329.36468365
  -exchange      EXHF   =         0.00000000
  -V(xc)+E(xc)   XCENC  =       190.23263445
  PAW double counting   =      4781.05954087    -4789.01461857
  entropy T*S    EENTRO =         0.01159591
  eigenvalues    EBANDS =      -748.31264105
  atomic energy  EATOM  =      1888.15124511
  Solvation  Ediel_sol  =         0.00000000
  ---------------------------------------------------
  free energy    TOTEN  =      -144.94579376 eV

  energy without entropy =     -144.95738966  energy(sigma->0) =     -144.94965906


--------------------------------------------------------------------------------------------------------




--------------------------------------- Iteration      1(   9)  ---------------------------------------


    POTLOK:  cpu time      3.1270: real time      3.1271
    SETDIJ:  cpu time      0.0031: real time      0.0031
     EDDAV:  cpu time     12.3666: real time     12.3672
       DOS:  cpu time      0.0010: real time      0.0010
    CHARGE:  cpu time      1.1188: real time      1.1189
    MIXING:  cpu time      0.0908: real time      0.0908
    --------------------------------------------
      LOOP:  cpu time     16.7073: real time     16.7081

 eigenvalue-minimisations  :   112
 total energy-change (2. order) : 0.4681540E-01  (-0.1017681E-01)
 number of electron      58.0000013 magnetization 
 augmentation part        1.2708245 magnetization 

 Broyden mixing:
  rms(total) = 0.33201E-01    rms(broyden)= 0.33174E-01
  rms(prec ) = 0.40269E-01
  weight for this iteration     100.00

 eigenvalues of (default mixing * dielectric matrix)
  average eigenvalue GAMMA=   1.6577
  2.1279  2.1279  1.1874  1.1874

 Free energy of the ion-electron system (eV)
  ---------------------------------------------------
  alpha Z        PSCENC =         0.98165661
  Ewald energy   TEWEN  =      5861.30947656
  -Hartree energ DENC   =     -7343.10119223
  -exchange      EXHF   =         0.00000000
  -V(xc)+E(xc)   XCENC  =       190.70396154
  PAW double counting   =      4913.10546366    -4921.05661291
  entropy T*S    EENTRO =         0.01159601
  eigenvalues    EBANDS =      -735.00457271
  atomic energy  EATOM  =      1888.15124511
  Solvation  Ediel_sol  =         0.00000000
  ---------------------------------------------------
  free energy    TOTEN  =      -144.89897836 eV

  energy without entropy =     -144.91057437  energy(sigma->0) =     -144.90284370


--------------------------------------------------------------------------------------------------------




--------------------------------------- Iteration      1(  10)  ---------------------------------------


    POTLOK:  cpu time      3.1263: real time      3.1265
    SETDIJ:  cpu time      0.0033: real time      0.0033
     EDDAV:  cpu time     13.0528: real time     13.0534
       DOS:  cpu time      0.0005: real time      0.0005
    CHARGE:  cpu time      1.0735: real time      1.0736
    MIXING:  cpu time      0.0934: real time      0.0934
    --------------------------------------------
      LOOP:  cpu time     17.3498: real time     17.3507

 eigenvalue-minimisations  :   120
 total energy-change (2. order) : 0.5454336E-02  (-0.1389828E-02)
 number of electron      58.0000013 magnetization 
 augmentation part        1.2695719 magnetization 

 Broyden mixing:
  rms(total) = 0.19205E-01    rms(broyden)= 0.19199E-01
  rms(prec ) = 0.25722E-01
  weight for this iteration     100.00

 eigenvalues of (default mixing * dielectric matrix)
  average eigenvalue GAMMA=   1.6500
  2.3252  2.3252  0.9657  1.3169  1.3169

 Free energy of the ion-electron system (eV)
  ---------------------------------------------------
  alpha Z        PSCENC =         0.98165661
  Ewald energy   TEWEN  =      5861.30947656
  -Hartree energ DENC   =     -7349.83571892
  -exchange      EXHF   =         0.00000000
  -V(xc)+E(xc)   XCENC  =       190.74848139
  PAW double counting   =      4868.35966310    -4876.28547582
  entropy T*S    EENTRO =         0.01159603
  eigenvalues    EBANDS =      -728.33444809
  atomic energy  EATOM  =      1888.15124511
  Solvation  Ediel_sol  =         0.00000000
  ---------------------------------------------------
  free energy    TOTEN  =      -144.89352402 eV

  energy without entropy =     -144.90512005  energy(sigma->0) =     -144.89738937


--------------------------------------------------------------------------------------------------------




--------------------------------------- Iteration      1(  11)  ---------------------------------------


    POTLOK:  cpu time      3.2044: real time      3.2046
    SETDIJ:  cpu time      0.0034: real time      0.0033
     EDDAV:  cpu time     12.1030: real time     12.1035
       DOS:  cpu time      0.0004: real time      0.0004
    CHARGE:  cpu time      1.0345: real time      1.0345
    MIXING:  cpu time      0.0952: real time      0.0952
    --------------------------------------------
      LOOP:  cpu time     16.4409: real time     16.4416

 eigenvalue-minimisations  :   108
 total energy-change (2. order) : 0.5371665E-02  (-0.5145366E-03)
 number of electron      58.0000013 magnetization 
 augmentation part        1.2684095 magnetization 

 Broyden mixing:
  rms(total) = 0.12579E-01    rms(broyden)= 0.12574E-01
  rms(prec ) = 0.17536E-01
  weight for this iteration     100.00

 eigenvalues of (default mixing * dielectric matrix)
  average eigenvalue GAMMA=   1.8187
  3.2235  2.4723  1.7914  1.2641  1.2641  0.8970

 Free energy of the ion-electron system (eV)
  ---------------------------------------------------
  alpha Z        PSCENC =         0.98165661
  Ewald energy   TEWEN  =      5861.30947656
  -Hartree energ DENC   =     -7357.03494797
  -exchange      EXHF   =         0.00000000
  -V(xc)+E(xc)   XCENC  =       190.87773771
  PAW double counting   =      4868.80556740    -4876.71970731
  entropy T*S    EENTRO =         0.01159598
  eigenvalues    EBANDS =      -721.27077646
  atomic energy  EATOM  =      1888.15124511
  Solvation  Ediel_sol  =         0.00000000
  ---------------------------------------------------
  free energy    TOTEN  =      -144.88815236 eV

  energy without entropy =     -144.89974834  energy(sigma->0) =     -144.89201769


--------------------------------------------------------------------------------------------------------




--------------------------------------- Iteration      1(  12)  ---------------------------------------


    POTLOK:  cpu time      3.1731: real time      3.1732
    SETDIJ:  cpu time      0.0038: real time      0.0038
     EDDAV:  cpu time     11.6945: real time     11.6950
       DOS:  cpu time      0.0008: real time      0.0008
    CHARGE:  cpu time      1.0293: real time      1.0293
    MIXING:  cpu time      0.0984: real time      0.0984
    --------------------------------------------
      LOOP:  cpu time     15.9998: real time     16.0005

 eigenvalue-minimisations  :   104
 total energy-change (2. order) : 0.1905493E-02  (-0.9694709E-03)
 number of electron      58.0000013 magnetization 
 augmentation part        1.2668266 magnetization 

 Broyden mixing:
  rms(total) = 0.67918E-02    rms(broyden)= 0.67825E-02
  rms(prec ) = 0.92629E-02
  weight for this iteration     100.00

 eigenvalues of (default mixing * dielectric matrix)
  average eigenvalue GAMMA=   1.9668
  4.5829  2.2136  2.2136  1.4544  1.2536  1.0247  1.0247

 Free energy of the ion-electron system (eV)
  ---------------------------------------------------
  alpha Z        PSCENC =         0.98165661
  Ewald energy   TEWEN  =      5861.30947656
  -Hartree energ DENC   =     -7366.94732723
  -exchange      EXHF   =         0.00000000
  -V(xc)+E(xc)   XCENC  =       191.03707589
  PAW double counting   =      4859.26845964    -4867.17923693
  entropy T*S    EENTRO =         0.01159596
  eigenvalues    EBANDS =      -711.51919249
  atomic energy  EATOM  =      1888.15124511
  Solvation  Ediel_sol  =         0.00000000
  ---------------------------------------------------
  free energy    TOTEN  =      -144.88624687 eV

  energy without entropy =     -144.89784283  energy(sigma->0) =     -144.89011219


--------------------------------------------------------------------------------------------------------




--------------------------------------- Iteration      1(  13)  ---------------------------------------


    POTLOK:  cpu time      3.1378: real time      3.1379
    SETDIJ:  cpu time      0.0032: real time      0.0032
     EDDAV:  cpu time     12.3397: real time     12.3403
       DOS:  cpu time      0.0006: real time      0.0006
    CHARGE:  cpu time      1.1188: real time      1.1189
    MIXING:  cpu time      0.1016: real time      0.1016
    --------------------------------------------
      LOOP:  cpu time     16.7018: real time     16.7026

 eigenvalue-minimisations  :   112
 total energy-change (2. order) :-0.7118964E-02  (-0.1658569E-03)
 number of electron      58.0000013 magnetization 
 augmentation part        1.2663653 magnetization 

 Broyden mixing:
  rms(total) = 0.38123E-02    rms(broyden)= 0.38107E-02
  rms(prec ) = 0.52468E-02
  weight for this iteration     100.00

 eigenvalues of (default mixing * dielectric matrix)
  average eigenvalue GAMMA=   2.0334
  5.1157  2.6033  1.9726  1.9726  1.3004  1.3004  1.0013  1.0013

 Free energy of the ion-electron system (eV)
  ---------------------------------------------------
  alpha Z        PSCENC =         0.98165661
  Ewald energy   TEWEN  =      5861.30947656
  -Hartree energ DENC   =     -7371.22747180
  -exchange      EXHF   =         0.00000000
  -V(xc)+E(xc)   XCENC  =       191.07533747
  PAW double counting   =      4854.32127845    -4862.23058915
  entropy T*S    EENTRO =         0.01159597
  eigenvalues    EBANDS =      -707.28589506
  atomic energy  EATOM  =      1888.15124511
  Solvation  Ediel_sol  =         0.00000000
  ---------------------------------------------------
  free energy    TOTEN  =      -144.89336583 eV

  energy without entropy =     -144.90496180  energy(sigma->0) =     -144.89723115


--------------------------------------------------------------------------------------------------------




--------------------------------------- Iteration      1(  14)  ---------------------------------------


    POTLOK:  cpu time      3.1582: real time      3.1584
    SETDIJ:  cpu time      0.0034: real time      0.0034
     EDDAV:  cpu time     11.0364: real time     11.0370
       DOS:  cpu time      0.0003: real time      0.0003
    CHARGE:  cpu time      1.1189: real time      1.1189
    MIXING:  cpu time      0.1067: real time      0.1067
    --------------------------------------------
      LOOP:  cpu time     15.4239: real time     15.4246

 eigenvalue-minimisations  :    96
 total energy-change (2. order) :-0.1077410E-01  (-0.1007754E-03)
 number of electron      58.0000013 magnetization 
 augmentation part        1.2663012 magnetization 

 Broyden mixing:
  rms(total) = 0.21270E-02    rms(broyden)= 0.21263E-02
  rms(prec ) = 0.29900E-02
  weight for this iteration     100.00

 eigenvalues of (default mixing * dielectric matrix)
  average eigenvalue GAMMA=   2.1992
  6.3788  3.3522  2.4249  1.7998  1.4458  1.2039  1.2039  0.9917  0.9917

 Free energy of the ion-electron system (eV)
  ---------------------------------------------------
  alpha Z        PSCENC =         0.98165661
  Ewald energy   TEWEN  =      5861.30947656
  -Hartree energ DENC   =     -7372.84572667
  -exchange      EXHF   =         0.00000000
  -V(xc)+E(xc)   XCENC  =       191.06403635
  PAW double counting   =      4850.86217102    -4858.77169301
  entropy T*S    EENTRO =         0.01159597
  eigenvalues    EBANDS =      -705.66690187
  atomic energy  EATOM  =      1888.15124511
  Solvation  Ediel_sol  =         0.00000000
  ---------------------------------------------------
  free energy    TOTEN  =      -144.90413993 eV

  energy without entropy =     -144.91573590  energy(sigma->0) =     -144.90800525


--------------------------------------------------------------------------------------------------------




--------------------------------------- Iteration      1(  15)  ---------------------------------------


    POTLOK:  cpu time      3.1577: real time      3.1578
    SETDIJ:  cpu time      0.0038: real time      0.0038
     EDDAV:  cpu time     11.3508: real time     11.3513
       DOS:  cpu time      0.0002: real time      0.0002
    CHARGE:  cpu time      1.1162: real time      1.1163
    MIXING:  cpu time      0.1100: real time      0.1100
    --------------------------------------------
      LOOP:  cpu time     15.7387: real time     15.7393

 eigenvalue-minimisations  :   100
 total energy-change (2. order) :-0.6722664E-02  (-0.6825510E-04)
 number of electron      58.0000013 magnetization 
 augmentation part        1.2660912 magnetization 

 Broyden mixing:
  rms(total) = 0.12304E-02    rms(broyden)= 0.12297E-02
  rms(prec ) = 0.16209E-02
  weight for this iteration     100.00

 eigenvalues of (default mixing * dielectric matrix)
  average eigenvalue GAMMA=   2.3069
  7.0903  3.8644  2.3918  2.3918  1.6728  1.2721  1.2721  1.1240  0.9950  0.9950

 Free energy of the ion-electron system (eV)
  ---------------------------------------------------
  alpha Z        PSCENC =         0.98165661
  Ewald energy   TEWEN  =      5861.30947656
  -Hartree energ DENC   =     -7374.15211667
  -exchange      EXHF   =         0.00000000
  -V(xc)+E(xc)   XCENC  =       191.06413209
  PAW double counting   =      4853.05393990    -4860.96412539
  entropy T*S    EENTRO =         0.01159597
  eigenvalues    EBANDS =      -704.36666678
  atomic energy  EATOM  =      1888.15124511
  Solvation  Ediel_sol  =         0.00000000
  ---------------------------------------------------
  free energy    TOTEN  =      -144.91086260 eV

  energy without entropy =     -144.92245856  energy(sigma->0) =     -144.91472792


--------------------------------------------------------------------------------------------------------




--------------------------------------- Iteration      1(  16)  ---------------------------------------


    POTLOK:  cpu time      3.1525: real time      3.1526
    SETDIJ:  cpu time      0.0032: real time      0.0032
     EDDAV:  cpu time     12.3392: real time     12.3398
       DOS:  cpu time      0.0009: real time      0.0009
    CHARGE:  cpu time      1.1393: real time      1.1394
    MIXING:  cpu time      0.1132: real time      0.1132
    --------------------------------------------
      LOOP:  cpu time     16.7483: real time     16.7491

 eigenvalue-minimisations  :   112
 total energy-change (2. order) :-0.3911220E-02  (-0.4297222E-04)
 number of electron      58.0000013 magnetization 
 augmentation part        1.2660457 magnetization 

 Broyden mixing:
  rms(total) = 0.65639E-03    rms(broyden)= 0.65616E-03
  rms(prec ) = 0.85504E-03
  weight for this iteration     100.00

 eigenvalues of (default mixing * dielectric matrix)
  average eigenvalue GAMMA=   2.3353
  7.4140  4.5496  2.5133  2.4827  1.8215  1.5339  1.1877  1.1877  0.9566  1.0208
  1.0208

 Free energy of the ion-electron system (eV)
  ---------------------------------------------------
  alpha Z        PSCENC =         0.98165661
  Ewald energy   TEWEN  =      5861.30947656
  -Hartree energ DENC   =     -7374.42214391
  -exchange      EXHF   =         0.00000000
  -V(xc)+E(xc)   XCENC  =       191.05551063
  PAW double counting   =      4851.84704920    -4859.75626162
  entropy T*S    EENTRO =         0.01159596
  eigenvalues    EBANDS =      -704.09290236
  atomic energy  EATOM  =      1888.15124511
  Solvation  Ediel_sol  =         0.00000000
  ---------------------------------------------------
  free energy    TOTEN  =      -144.91477382 eV

  energy without entropy =     -144.92636978  energy(sigma->0) =     -144.91863914


--------------------------------------------------------------------------------------------------------




--------------------------------------- Iteration      1(  17)  ---------------------------------------


    POTLOK:  cpu time      3.1428: real time      3.1430
    SETDIJ:  cpu time      0.0032: real time      0.0032
     EDDAV:  cpu time     13.3524: real time     13.3530
       DOS:  cpu time      0.0002: real time      0.0002
    CHARGE:  cpu time      1.1204: real time      1.1205
    MIXING:  cpu time      0.1183: real time      0.1183
    --------------------------------------------
      LOOP:  cpu time     17.7374: real time     17.7381

 eigenvalue-minimisations  :   124
 total energy-change (2. order) :-0.1161820E-02  (-0.7434095E-05)
 number of electron      58.0000013 magnetization 
 augmentation part        1.2660257 magnetization 

 Broyden mixing:
  rms(total) = 0.37217E-03    rms(broyden)= 0.37206E-03
  rms(prec ) = 0.49966E-03
  weight for this iteration     100.00

 eigenvalues of (default mixing * dielectric matrix)
  average eigenvalue GAMMA=   2.3613
  7.6965  5.1287  2.8907  2.4366  2.0720  1.4978  1.3490  1.1864  1.1864  0.9720
  0.9720  0.9480

 Free energy of the ion-electron system (eV)
  ---------------------------------------------------
  alpha Z        PSCENC =         0.98165661
  Ewald energy   TEWEN  =      5861.30947656
  -Hartree energ DENC   =     -7374.53726352
  -exchange      EXHF   =         0.00000000
  -V(xc)+E(xc)   XCENC  =       191.05491172
  PAW double counting   =      4852.51546362    -4860.42441120
  entropy T*S    EENTRO =         0.01159597
  eigenvalues    EBANDS =      -703.97861051
  atomic energy  EATOM  =      1888.15124511
  Solvation  Ediel_sol  =         0.00000000
  ---------------------------------------------------
  free energy    TOTEN  =      -144.91593563 eV

  energy without entropy =     -144.92753160  energy(sigma->0) =     -144.91980096


--------------------------------------------------------------------------------------------------------




--------------------------------------- Iteration      1(  18)  ---------------------------------------


    POTLOK:  cpu time      3.1390: real time      3.1390
    SETDIJ:  cpu time      0.0031: real time      0.0031
     EDDAV:  cpu time     10.6538: real time     10.6544
       DOS:  cpu time      0.0008: real time      0.0008
    CHARGE:  cpu time      1.1250: real time      1.1250
    MIXING:  cpu time      0.1232: real time      0.1232
    --------------------------------------------
      LOOP:  cpu time     15.0447: real time     15.0454

 eigenvalue-minimisations  :    92
 total energy-change (2. order) :-0.5697773E-03  (-0.1725376E-05)
 number of electron      58.0000013 magnetization 
 augmentation part        1.2660112 magnetization 

 Broyden mixing:
  rms(total) = 0.21989E-03    rms(broyden)= 0.21984E-03
  rms(prec ) = 0.29628E-03
  weight for this iteration     100.00

 eigenvalues of (default mixing * dielectric matrix)
  average eigenvalue GAMMA=   2.4070
  8.0041  5.4413  3.3163  2.4161  2.4161  1.8264  1.4046  1.2639  1.1388  1.1388
  0.9634  0.9634  0.9984

 Free energy of the ion-electron system (eV)
  ---------------------------------------------------
  alpha Z        PSCENC =         0.98165661
  Ewald energy   TEWEN  =      5861.30947656
  -Hartree energ DENC   =     -7374.61004943
  -exchange      EXHF   =         0.00000000
  -V(xc)+E(xc)   XCENC  =       191.05426274
  PAW double counting   =      4852.03687434    -4859.94596688
  entropy T*S    EENTRO =         0.01159597
  eigenvalues    EBANDS =      -703.90560042
  atomic energy  EATOM  =      1888.15124511
  Solvation  Ediel_sol  =         0.00000000
  ---------------------------------------------------
  free energy    TOTEN  =      -144.91650541 eV

  energy without entropy =     -144.92810138  energy(sigma->0) =     -144.92037073


--------------------------------------------------------------------------------------------------------




--------------------------------------- Iteration      1(  19)  ---------------------------------------


    POTLOK:  cpu time      3.1555: real time      3.1556
    SETDIJ:  cpu time      0.0035: real time      0.0035
     EDDAV:  cpu time     10.6771: real time     10.6776
       DOS:  cpu time      0.0009: real time      0.0009
    CHARGE:  cpu time      1.1180: real time      1.1181
    MIXING:  cpu time      0.1286: real time      0.1286
    --------------------------------------------
      LOOP:  cpu time     15.0835: real time     15.0841

 eigenvalue-minimisations  :    92
 total energy-change (2. order) :-0.3677252E-03  (-0.1253552E-05)
 number of electron      58.0000013 magnetization 
 augmentation part        1.2660073 magnetization 

 Broyden mixing:
  rms(total) = 0.12411E-03    rms(broyden)= 0.12409E-03
  rms(prec ) = 0.15909E-03
  weight for this iteration     100.00

 eigenvalues of (default mixing * dielectric matrix)
  average eigenvalue GAMMA=   2.4582
  8.2313  6.1619  3.8301  2.6757  2.4122  2.0134  1.4750  1.3295  1.1783  1.1783
  0.9862  0.9862  0.9461  1.0100

 Free energy of the ion-electron system (eV)
  ---------------------------------------------------
  alpha Z        PSCENC =         0.98165661
  Ewald energy   TEWEN  =      5861.30947656
  -Hartree energ DENC   =     -7374.67649804
  -exchange      EXHF   =         0.00000000
  -V(xc)+E(xc)   XCENC  =       191.05429525
  PAW double counting   =      4852.02421863    -4859.93331677
  entropy T*S    EENTRO =         0.01159597
  eigenvalues    EBANDS =      -703.83954646
  atomic energy  EATOM  =      1888.15124511
  Solvation  Ediel_sol  =         0.00000000
  ---------------------------------------------------
  free energy    TOTEN  =      -144.91687314 eV

  energy without entropy =     -144.92846910  energy(sigma->0) =     -144.92073846


--------------------------------------------------------------------------------------------------------




--------------------------------------- Iteration      1(  20)  ---------------------------------------


    POTLOK:  cpu time      3.1646: real time      3.1647
    SETDIJ:  cpu time      0.0033: real time      0.0033
     EDDAV:  cpu time     10.6647: real time     10.6658
       DOS:  cpu time      0.0008: real time      0.0008
    CHARGE:  cpu time      1.1134: real time      1.1187
    MIXING:  cpu time      0.1332: real time      0.1354
    --------------------------------------------
      LOOP:  cpu time     15.0799: real time     15.0887

 eigenvalue-minimisations  :    92
 total energy-change (2. order) :-0.1263841E-03  (-0.3455015E-06)
 number of electron      58.0000013 magnetization 
 augmentation part        1.2660061 magnetization 

 Broyden mixing:
  rms(total) = 0.70999E-04    rms(broyden)= 0.70978E-04
  rms(prec ) = 0.89313E-04
  weight for this iteration     100.00

 eigenvalues of (default mixing * dielectric matrix)
  average eigenvalue GAMMA=   2.5539
  8.7671  6.4789  4.4952  2.6761  2.4446  2.4446  1.9933  1.4025  1.3377  1.1750
  1.1750  0.9985  0.9985  0.9610  0.9610

 Free energy of the ion-electron system (eV)
  ---------------------------------------------------
  alpha Z        PSCENC =         0.98165661
  Ewald energy   TEWEN  =      5861.30947656
  -Hartree energ DENC   =     -7374.69914693
  -exchange      EXHF   =         0.00000000
  -V(xc)+E(xc)   XCENC  =       191.05402948
  PAW double counting   =      4852.01517563    -4859.92429530
  entropy T*S    EENTRO =         0.01159596
  eigenvalues    EBANDS =      -703.81673666
  atomic energy  EATOM  =      1888.15124511
  Solvation  Ediel_sol  =         0.00000000
  ---------------------------------------------------
  free energy    TOTEN  =      -144.91699952 eV

  energy without entropy =     -144.92859549  energy(sigma->0) =     -144.92086484


--------------------------------------------------------------------------------------------------------




--------------------------------------- Iteration      1(  21)  ---------------------------------------


    POTLOK:  cpu time      3.1519: real time      3.1872
    SETDIJ:  cpu time      0.0031: real time      0.0031
     EDDAV:  cpu time      9.3202: real time      9.3392
       DOS:  cpu time      0.0009: real time      0.0009
    CHARGE:  cpu time      1.1170: real time      1.1171
    MIXING:  cpu time      0.1407: real time      0.1407
    --------------------------------------------
      LOOP:  cpu time     13.7338: real time     13.7882

 eigenvalue-minimisations  :    76
 total energy-change (2. order) :-0.7342301E-04  (-0.1068208E-06)
 number of electron      58.0000013 magnetization 
 augmentation part        1.2660030 magnetization 

 Broyden mixing:
  rms(total) = 0.40505E-04    rms(broyden)= 0.40482E-04
  rms(prec ) = 0.47050E-04
  weight for this iteration     100.00

 eigenvalues of (default mixing * dielectric matrix)
  average eigenvalue GAMMA=   2.5642
  8.8616  6.8867  4.6998  3.3610  2.5150  2.3188  1.9478  1.5911  1.2637  1.2637
  1.1925  1.1925  0.9579  0.9579  1.0083  1.0083

 Free energy of the ion-electron system (eV)
  ---------------------------------------------------
  alpha Z        PSCENC =         0.98165661
  Ewald energy   TEWEN  =      5861.30947656
  -Hartree energ DENC   =     -7374.72860537
  -exchange      EXHF   =         0.00000000
  -V(xc)+E(xc)   XCENC  =       191.05424039
  PAW double counting   =      4851.97851816    -4859.88765348
  entropy T*S    EENTRO =         0.01159597
  eigenvalues    EBANDS =      -703.78754689
  atomic energy  EATOM  =      1888.15124511
  Solvation  Ediel_sol  =         0.00000000
  ---------------------------------------------------
  free energy    TOTEN  =      -144.91707294 eV

  energy without entropy =     -144.92866891  energy(sigma->0) =     -144.92093827


--------------------------------------------------------------------------------------------------------




--------------------------------------- Iteration      1(  22)  ---------------------------------------


    POTLOK:  cpu time      3.2123: real time      3.2125
    SETDIJ:  cpu time      0.0032: real time      0.0032
     EDDAV:  cpu time      9.6707: real time      9.6719
       DOS:  cpu time      0.0007: real time      0.0007
    CHARGE:  cpu time      1.1184: real time      1.1185
    MIXING:  cpu time      0.1461: real time      0.1462
    --------------------------------------------
      LOOP:  cpu time     14.1516: real time     14.1531

 eigenvalue-minimisations  :    80
 total energy-change (2. order) :-0.1940406E-04  (-0.2695753E-07)
 number of electron      58.0000013 magnetization 
 augmentation part        1.2660038 magnetization 

 Broyden mixing:
  rms(total) = 0.25590E-04    rms(broyden)= 0.25585E-04
  rms(prec ) = 0.29061E-04
  weight for this iteration     100.00

 eigenvalues of (default mixing * dielectric matrix)
  average eigenvalue GAMMA=   2.5480
  9.1207  6.8571  4.8997  3.2565  2.5487  2.5487  2.0339  2.0339  1.4069  1.2703
  1.1852  1.1852  1.0576  1.0576  0.9598  0.9598  0.9338

 Free energy of the ion-electron system (eV)
  ---------------------------------------------------
  alpha Z        PSCENC =         0.98165661
  Ewald energy   TEWEN  =      5861.30947656
  -Hartree energ DENC   =     -7374.72562016
  -exchange      EXHF   =         0.00000000
  -V(xc)+E(xc)   XCENC  =       191.05407380
  PAW double counting   =      4852.04596875    -4859.95508143
  entropy T*S    EENTRO =         0.01159597
  eigenvalues    EBANDS =      -703.79040756
  atomic energy  EATOM  =      1888.15124511
  Solvation  Ediel_sol  =         0.00000000
  ---------------------------------------------------
  free energy    TOTEN  =      -144.91709235 eV

  energy without entropy =     -144.92868831  energy(sigma->0) =     -144.92095767


--------------------------------------------------------------------------------------------------------




--------------------------------------- Iteration      1(  23)  ---------------------------------------


    POTLOK:  cpu time      3.2478: real time      3.2480
    SETDIJ:  cpu time      0.0032: real time      0.0032
     EDDAV:  cpu time      7.6643: real time      7.6823
       DOS:  cpu time      0.0002: real time      0.0002
    --------------------------------------------
      LOOP:  cpu time     10.9153: real time     10.9336

 eigenvalue-minimisations  :    56
 total energy-change (2. order) :-0.8719447E-05  (-0.1038529E-07)
 number of electron      58.0000013 magnetization 
 augmentation part        1.2660038 magnetization 

 Free energy of the ion-electron system (eV)
  ---------------------------------------------------
  alpha Z        PSCENC =         0.98165661
  Ewald energy   TEWEN  =      5861.30947656
  -Hartree energ DENC   =     -7374.72625730
  -exchange      EXHF   =         0.00000000
  -V(xc)+E(xc)   XCENC  =       191.05403320
  PAW double counting   =      4851.99128536    -4859.90038701
  entropy T*S    EENTRO =         0.01159597
  eigenvalues    EBANDS =      -703.78974957
  atomic energy  EATOM  =      1888.15124511
  Solvation  Ediel_sol  =         0.00000000
  ---------------------------------------------------
  free energy    TOTEN  =      -144.91710107 eV

  energy without entropy =     -144.92869703  energy(sigma->0) =     -144.92096639


--------------------------------------------------------------------------------------------------------




 average (electrostatic) potential at core
  the test charge radii are     0.6991  0.5201
  (the norm of the test charge is              1.0000)
       1 -59.1912       2 -58.9337       3 -58.9466       4 -58.9236       5 -58.9466
       6 -58.9337       7 -58.9232       8 -58.9463       9 -58.9334      10 -59.1909
      11 -58.9334      12 -58.9463      13 -42.0174      14 -42.0158      15 -42.0106
      16 -42.0158      17 -42.0173      18 -42.0104      19 -42.0154      20 -42.0170
      21 -42.0170      22 -42.0155



 E-fermi :  -5.4926     XC(G=0):  -0.2295     alpha+bet : -0.0924

 Fermi energy:        -5.4926091140

 k-point     1 :       0.0000    0.0000    0.0000
  band No.  band energies     occupation 
      1     -21.6239      2.00000
      2     -21.0448      2.00000
      3     -19.2724      2.00000
      4     -18.5590      2.00000
      5     -18.3570      2.00000
      6     -17.7900      2.00000
      7     -15.3779      2.00000
      8     -15.2288      2.00000
      9     -14.4911      2.00000
     10     -14.1667      2.00000
     11     -13.0616      2.00000
     12     -12.1567      2.00000
     13     -11.3946      2.00000
     14     -11.3277      2.00000
     15     -10.6237      2.00000
     16     -10.6129      2.00000
     17     -10.2459      2.00000
     18     -10.1537      2.00000
     19     -10.0465      2.00000
     20      -9.2796      2.00000
     21      -8.8319      2.00000
     22      -8.7268      2.00000
     23      -8.3757      2.00000
     24      -8.0393      2.00000
     25      -7.9340      2.00000
     26      -6.8833      2.00000
     27      -6.3269      2.00000
     28      -6.3017      2.00000
     29      -5.6610      2.00000
     30      -1.7939     -0.00000
     31      -1.2688     -0.00000
     32      -1.1423     -0.00000
     33      -0.4956     -0.00000
     34      -0.4475     -0.00000
     35      -0.2608     -0.00000
     36      -0.0856     -0.00000
     37       0.0312      0.00000
     38       0.1547      0.00000
     39       0.1619      0.00000
     40       0.1642      0.00000
     41       0.2043      0.00000
     42       0.3071      0.00000
     43       0.3168      0.00000
     44       0.4187      0.00000


--------------------------------------------------------------------------------------------------------


 soft charge-density along one line, spin component           1
         0         1         2         3         4         5         6         7         8         9
 total charge-density along one line

 pseudopotential strength for first ion, spin component:           1
 10.266  13.653   0.000   0.000   0.000  -0.000  -0.000   0.000
 13.653  18.157   0.000   0.000   0.000  -0.000  -0.000   0.000
  0.000   0.000  -4.408  -0.000   0.000   8.624   0.001  -0.000
  0.000   0.000  -0.000  -4.402  -0.000   0.001   8.618   0.000
  0.000   0.000   0.000  -0.000  -4.407  -0.000   0.000   8.624
 -0.000  -0.000   8.624   0.001  -0.000 -19.015  -0.000   0.000
 -0.000  -0.000   0.001   8.618   0.000  -0.000 -19.012  -0.000
  0.000   0.000  -0.000   0.000   8.624   0.000  -0.000 -19.016
 total augmentation occupancy for first ion, spin component:           1
  7.036  -2.986  -0.000   0.000  -0.112  -0.000   0.000  -0.023
 -2.986   1.346   0.000  -0.000   0.048   0.000  -0.000   0.011
 -0.000   0.000   1.929   0.044  -0.000   0.204   0.006  -0.000
  0.000  -0.000   0.044   1.257   0.000   0.006   0.104   0.000
 -0.112   0.048  -0.000   0.000   1.829  -0.000   0.000   0.192
 -0.000   0.000   0.204   0.006  -0.000   0.023   0.001  -0.000
  0.000  -0.000   0.006   0.104   0.000   0.001   0.009   0.000
 -0.023   0.011  -0.000   0.000   0.192  -0.000   0.000   0.021


------------------------ aborting loop because EDIFF is reached ----------------------------------------


    CHARGE:  cpu time      1.1105: real time      1.1208
    FORLOC:  cpu time      0.3357: real time      0.3378
    FORNL :  cpu time      1.7100: real time      1.7212
    STRESS:  cpu time      8.3600: real time      8.4055
    FORCOR:  cpu time      3.2549: real time      3.2550
    FORHAR:  cpu time      1.1147: real time      1.1147
    MIXING:  cpu time      0.1524: real time      0.1524
    OFIELD:  cpu time      0.0000: real time      0.0000

 ---------------------------------------------------------------------------------------------

         DFTD3 V3.0 Rev 1        
 IVDW         = 12
 DF pbe       
 parameters
 VDW_S6       =    1.0000
 VDW_S8       =    0.7875
 VDW_A1       =    0.4289
 VDW_A2       =    4.4407
 k1-k3        =   16.0000    1.3333   -4.0000
 VDW_RADIUS   =   50.2022 A
 VDW_CNRADIUS =   21.1671 A
 Edisp (eV)   -0.71727

 E6    (eV) :    -0.4988
 E8    (eV) :    -0.2184
 % E8        : 30.45
    FORVDW:  cpu time      0.0046: real time      0.0046

  FORCE on cell =-STRESS in cart. coord.  units (eV):
  Direction    XX          YY          ZZ          XY          YZ          ZX
  --------------------------------------------------------------------------------------
  Alpha Z     0.98166     0.98166     0.98166
  Ewald    2580.50861  2533.74865   747.05104    -0.00551   847.52233     0.00976
  Hartree  2571.54893  2950.01448  1853.16625    -0.00504   512.43343     0.00998
  E(xc)    -207.30780  -208.93363  -212.60299    -0.00000     1.78755    -0.00001
  Local   -5688.44543 -6041.01118 -3223.87188     0.01063 -1327.60924    -0.02006
  n-local   -70.73109   -70.28413   -66.05183    -0.00003    -2.06509     0.00003
  augment    -3.05184    -3.00175    -2.74634    -0.00000    -0.12466     0.00000
  Kinetic   807.34278   828.41154   892.72070     0.00005   -31.32814     0.00034
  Fock        0.00000     0.00000     0.00000     0.00000     0.00000     0.00000
  vdW        -0.43366    -0.17457    -0.05321     0.00000    -0.05910    -0.00000
  -------------------------------------------------------------------------------------
  Total      -9.58784   -10.24892   -11.40659     0.00009     0.55709     0.00005
  in kB      -0.96009    -1.02629    -1.14221     0.00001     0.05578     0.00000
  external pressure =       -1.04 kB  Pullay stress =        0.00 kB


 VOLUME and BASIS-vectors are now :
 -----------------------------------------------------------------------------
  energy-cutoff  :      315.00
  volume of cell :    16000.00
      direct lattice vectors                 reciprocal lattice vectors
    40.000000000  0.000000000  0.000000000     0.025000000  0.000000000  0.000000000
     0.000000000 20.000000000  0.000000000     0.000000000  0.050000000  0.000000000
     0.000000000  0.000000000 20.000000000     0.000000000  0.000000000  0.050000000

  length of vectors
    40.000000000 20.000000000 20.000000000     0.025000000  0.050000000  0.050000000


 FORCES acting on ions
    electron-ion (+dipol)            ewald-force                    non-local-force                 convergence-correction
 -----------------------------------------------------------------------------------------------
   -.617E+00 -.160E-02 0.356E-02   0.581E+00 0.151E-02 -.358E-02   0.139E+00 -.131E-03 0.500E-04   0.705E-04 0.161E-04 0.206E-05
   0.134E+02 0.183E+03 0.669E+01   -.130E+02 -.184E+03 -.672E+01   -.396E+00 0.101E+01 0.266E-01   0.127E-03 -.638E-04 -.628E-05
   0.150E+03 0.166E+03 0.945E+01   -.150E+03 -.167E+03 -.956E+01   0.559E+00 0.798E+00 0.103E+00   -.157E-04 -.809E-04 -.607E-05
   0.231E+03 -.217E-03 0.117E-02   -.232E+03 0.150E-03 -.109E-02   0.106E+01 -.101E-03 -.770E-04   -.105E-03 0.210E-04 0.236E-05
   0.150E+03 -.166E+03 -.945E+01   -.150E+03 0.167E+03 0.956E+01   0.559E+00 -.798E+00 -.103E+00   -.355E-05 0.902E-04 0.785E-05
   0.134E+02 -.183E+03 -.668E+01   -.130E+02 0.184E+03 0.671E+01   -.396E+00 -.101E+01 -.266E-01   0.109E-03 0.732E-04 0.654E-05
   -.231E+03 0.182E-02 -.245E-02   0.232E+03 -.175E-02 0.244E-02   -.106E+01 0.208E-04 0.150E-05   0.149E-03 -.763E-05 -.852E-05
   -.150E+03 0.125E+03 0.109E+03   0.150E+03 -.126E+03 -.109E+03   -.559E+00 0.645E+00 0.483E+00   0.537E-04 -.832E-04 -.686E-04
   -.134E+02 0.135E+03 0.123E+03   0.130E+02 -.136E+03 -.123E+03   0.397E+00 0.742E+00 0.684E+00   -.124E-03 -.847E-04 -.689E-04
   0.614E+00 0.144E-02 -.327E-02   -.579E+00 -.134E-02 0.327E-02   -.138E+00 0.276E-04 0.264E-04   -.130E-03 0.513E-05 0.274E-05
   -.134E+02 -.135E+03 -.123E+03   0.130E+02 0.136E+03 0.123E+03   0.397E+00 -.742E+00 -.684E+00   -.139E-03 0.853E-04 0.679E-04
   -.150E+03 -.125E+03 -.109E+03   0.150E+03 0.126E+03 0.109E+03   -.559E+00 -.645E+00 -.484E+00   0.485E-04 0.814E-04 0.677E-04
   -.165E+02 0.842E+02 0.529E+00   0.194E+02 -.893E+02 -.675E+00   -.280E+01 0.492E+01 0.142E+00   0.142E-04 -.181E-04 -.233E-05
   0.511E+02 0.726E+02 0.368E+01   -.540E+02 -.776E+02 -.394E+01   0.280E+01 0.491E+01 0.254E+00   -.701E-05 -.288E-04 -.196E-05
   0.898E+02 0.859E-04 -.365E-03   -.956E+02 -.843E-04 0.422E-03   0.566E+01 0.216E-04 -.378E-04   -.788E-05 0.164E-05 0.281E-06
   0.511E+02 -.726E+02 -.369E+01   -.540E+02 0.776E+02 0.395E+01   0.280E+01 -.491E+01 -.254E+00   -.247E-05 0.234E-04 0.181E-05
   -.165E+02 -.842E+02 -.529E+00   0.194E+02 0.893E+02 0.675E+00   -.280E+01 -.492E+01 -.142E+00   0.105E-04 0.145E-04 0.212E-05
   -.898E+02 -.819E-03 0.941E-03   0.956E+02 0.892E-03 -.103E-02   -.566E+01 -.866E-04 0.102E-03   0.627E-05 -.564E-06 -.826E-06
   -.511E+02 0.546E+02 0.481E+02   0.540E+02 -.584E+02 -.514E+02   -.280E+01 0.369E+01 0.325E+01   0.733E-05 -.179E-04 -.142E-04
   0.165E+02 0.607E+02 0.584E+02   -.194E+02 -.644E+02 -.619E+02   0.280E+01 0.362E+01 0.333E+01   -.152E-04 -.155E-04 -.115E-04
   0.165E+02 -.607E+02 -.584E+02   -.194E+02 0.644E+02 0.619E+02   0.280E+01 -.362E+01 -.333E+01   -.169E-04 0.150E-04 0.106E-04
   -.511E+02 -.546E+02 -.481E+02   0.540E+02 0.584E+02 0.514E+02   -.280E+01 -.369E+01 -.325E+01   0.862E-05 0.202E-04 0.164E-04
 -----------------------------------------------------------------------------------------------
   -.913E-03 0.844E-03 0.163E-03   -.114E-12 -.711E-14 -.213E-13   0.936E-03 -.888E-03 -.159E-03   0.386E-04 0.460E-04 -.797E-06


 POSITION                                       TOTAL-FORCE (eV/Angst)
 -----------------------------------------------------------------------------------
     19.25951     10.00000      9.99996         0.111478     -0.000208      0.000032
     18.53696      8.79591      9.92510         0.011268      0.033124     -0.001955
     17.14212      8.79552      9.92531         0.013473      0.020575     -0.002941
     16.43782     10.00000      9.99996         0.017612     -0.000147      0.000004
     17.14212     11.20448     10.07462         0.013164     -0.020478      0.003039
     18.53696     11.20410     10.07482         0.011559     -0.032889      0.002025
     23.56136      9.99999     10.00000        -0.016340      0.000085     -0.000015
     22.85707      9.08520      9.21287        -0.013621      0.014461      0.015294
     21.46224      9.08529      9.21336        -0.010767      0.024098      0.022122
     20.73969      9.99999      9.99999        -0.111767      0.000131      0.000032
     21.46223     10.91469     10.78663        -0.010558     -0.024149     -0.022382
     22.85707     10.91478     10.78712        -0.013977     -0.014716     -0.015594
     19.07814      7.84887      9.89283         0.078409     -0.143889     -0.004310
     16.60199      7.84866      9.87634        -0.080173     -0.141131     -0.007361
     15.34701     10.00000      9.99997        -0.161723      0.000025      0.000018
     16.60199     12.15133     10.12367        -0.080115      0.141140      0.007212
     19.07814     12.15114     10.10711         0.078380      0.143793      0.004314
     24.65218     10.00000      9.99998         0.161051     -0.000013      0.000016
     23.39721      8.37294      8.58706         0.080251     -0.105025     -0.092826
     20.92110      8.38442      8.57556        -0.078984     -0.104873     -0.096918
     20.92110     11.61560     11.42438        -0.079057      0.104904      0.097039
     23.39720     11.62709     11.41285         0.080434      0.105183      0.093155
 -----------------------------------------------------------------------------------
    total drift:                                0.000061      0.000002      0.000004


--------------------------------------------------------------------------------------------------------



  FREE ENERGIE OF THE ION-ELECTRON SYSTEM (eV)
  ---------------------------------------------------
  free  energy   TOTEN  =      -145.63436631 eV

  energy  without entropy=     -145.64596227  energy(sigma->0) =     -145.63823163



--------------------------------------------------------------------------------------------------------


    POTLOK:  cpu time      3.2538: real time      3.2539


--------------------------------------------------------------------------------------------------------




--------------------------------------------------------------------------------------------------------


    WAVPRE:  cpu time     15.9226: real time     15.9231
    FEWALD:  cpu time      0.0006: real time      0.0006
    ORTHCH:  cpu time      1.0391: real time      1.0392
     LOOP+:  cpu time    390.8297: real time    391.0342


--------------------------------------- Iteration      2(   1)  ---------------------------------------


    POTLOK:  cpu time      3.2839: real time      3.2894
    SETDIJ:  cpu time      0.0040: real time      0.0040
     EDDAV:  cpu time     11.0514: real time     11.0520
       DOS:  cpu time      0.0010: real time      0.0010
    CHARGE:  cpu time      1.1236: real time      1.1236
    MIXING:  cpu time      0.0812: real time      0.0812
    --------------------------------------------
      LOOP:  cpu time     15.5452: real time     15.5513

 eigenvalue-minimisations  :    96
 total energy-change (2. order) :-0.3380207E-03  (-0.4788341E-01)
 number of electron      58.0000018 magnetization 
 augmentation part        1.2598745 magnetization 

 Broyden mixing:
  rms(total) = 0.26633E-01    rms(broyden)= 0.26586E-01
  rms(prec ) = 0.26967E-01
  weight for this iteration     100.00

 Free energy of the ion-electron system (eV)
  ---------------------------------------------------
  alpha Z        PSCENC =         0.98165661
  Ewald energy   TEWEN  =      5856.78465975
  -Hartree energ DENC   =     -7372.05556252
  -exchange      EXHF   =         0.00000000
  -V(xc)+E(xc)   XCENC  =       190.92970390
  PAW double counting   =      4852.00073796    -4859.90984764
  entropy T*S    EENTRO =         0.01159598
  eigenvalues    EBANDS =      -701.81161953
  atomic energy  EATOM  =      1888.15124511
  Solvation  Ediel_sol  =         0.00000000
  ---------------------------------------------------
  free energy    TOTEN  =      -144.91743037 eV

  energy without entropy =     -144.92902635  energy(sigma->0) =     -144.92129570


--------------------------------------------------------------------------------------------------------




--------------------------------------- Iteration      2(   2)  ---------------------------------------


    POTLOK:  cpu time      3.2744: real time      3.2746
    SETDIJ:  cpu time      0.0032: real time      0.0032
     EDDAV:  cpu time     12.0591: real time     12.0596
       DOS:  cpu time      0.0012: real time      0.0012
    CHARGE:  cpu time      1.1177: real time      1.1178
    MIXING:  cpu time      0.0881: real time      0.0881
    --------------------------------------------
      LOOP:  cpu time     16.5436: real time     16.5444

 eigenvalue-minimisations  :   108
 total energy-change (2. order) : 0.3169062E-03  (-0.1211643E-02)
 number of electron      58.0000018 magnetization 
 augmentation part        1.2604698 magnetization 

 Broyden mixing:
  rms(total) = 0.16655E-01    rms(broyden)= 0.16643E-01
  rms(prec ) = 0.16878E-01
  weight for this iteration     100.00

 eigenvalues of (default mixing * dielectric matrix)
  average eigenvalue GAMMA=   1.8343
  1.8343

 Free energy of the ion-electron system (eV)
  ---------------------------------------------------
  alpha Z        PSCENC =         0.98165661
  Ewald energy   TEWEN  =      5856.78465975
  -Hartree energ DENC   =     -7371.44674453
  -exchange      EXHF   =         0.00000000
  -V(xc)+E(xc)   XCENC  =       190.89149255
  PAW double counting   =      4840.54466778    -4848.44540628
  entropy T*S    EENTRO =         0.01159595
  eigenvalues    EBANDS =      -702.39028041
  atomic energy  EATOM  =      1888.15124511
  Solvation  Ediel_sol  =         0.00000000
  ---------------------------------------------------
  free energy    TOTEN  =      -144.91711346 eV

  energy without entropy =     -144.92870941  energy(sigma->0) =     -144.92097878


--------------------------------------------------------------------------------------------------------




--------------------------------------- Iteration      2(   3)  ---------------------------------------


    POTLOK:  cpu time      3.2849: real time      3.2850
    SETDIJ:  cpu time      0.0050: real time      0.0050
     EDDAV:  cpu time     12.0809: real time     12.0815
       DOS:  cpu time      0.0011: real time      0.0011
    CHARGE:  cpu time      1.1226: real time      1.1226
    MIXING:  cpu time      0.0877: real time      0.0877
    --------------------------------------------
      LOOP:  cpu time     16.5822: real time     16.5831

 eigenvalue-minimisations  :   108
 total energy-change (2. order) : 0.2805945E-03  (-0.2616816E-03)
 number of electron      58.0000018 magnetization 
 augmentation part        1.2612565 magnetization 

 Broyden mixing:
  rms(total) = 0.50206E-02    rms(broyden)= 0.50082E-02
  rms(prec ) = 0.51214E-02
  weight for this iteration     100.00

 eigenvalues of (default mixing * dielectric matrix)
  average eigenvalue GAMMA=   1.4529
  0.9191  1.9867

 Free energy of the ion-electron system (eV)
  ---------------------------------------------------
  alpha Z        PSCENC =         0.98165661
  Ewald energy   TEWEN  =      5856.78465975
  -Hartree energ DENC   =     -7370.66234504
  -exchange      EXHF   =         0.00000000
  -V(xc)+E(xc)   XCENC  =       190.85087192
  PAW double counting   =      4828.68626619    -4836.57947346
  entropy T*S    EENTRO =         0.01159592
  eigenvalues    EBANDS =      -703.14130988
  atomic energy  EATOM  =      1888.15124511
  Solvation  Ediel_sol  =         0.00000000
  ---------------------------------------------------
  free energy    TOTEN  =      -144.91683287 eV

  energy without entropy =     -144.92842879  energy(sigma->0) =     -144.92069818


--------------------------------------------------------------------------------------------------------




--------------------------------------- Iteration      2(   4)  ---------------------------------------


    POTLOK:  cpu time      3.2934: real time      3.2935
    SETDIJ:  cpu time      0.0034: real time      0.0034
     EDDAV:  cpu time     13.0718: real time     13.0723
       DOS:  cpu time      0.0011: real time      0.0011
    CHARGE:  cpu time      1.1219: real time      1.1219
    MIXING:  cpu time      0.0893: real time      0.0893
    --------------------------------------------
      LOOP:  cpu time     17.5809: real time     17.5816

 eigenvalue-minimisations  :   120
 total energy-change (2. order) : 0.2706396E-04  (-0.3229564E-04)
 number of electron      58.0000018 magnetization 
 augmentation part        1.2611861 magnetization 

 Broyden mixing:
  rms(total) = 0.26373E-02    rms(broyden)= 0.26361E-02
  rms(prec ) = 0.26583E-02
  weight for this iteration     100.00

 eigenvalues of (default mixing * dielectric matrix)
  average eigenvalue GAMMA=   1.5116
  2.3975  1.0686  1.0686

 Free energy of the ion-electron system (eV)
  ---------------------------------------------------
  alpha Z        PSCENC =         0.98165661
  Ewald energy   TEWEN  =      5856.78465975
  -Hartree energ DENC   =     -7370.63002643
  -exchange      EXHF   =         0.00000000
  -V(xc)+E(xc)   XCENC  =       190.85080258
  PAW double counting   =      4826.68679255    -4834.58080832
  entropy T*S    EENTRO =         0.01159594
  eigenvalues    EBANDS =      -703.17272361
  atomic energy  EATOM  =      1888.15124511
  Solvation  Ediel_sol  =         0.00000000
  ---------------------------------------------------
  free energy    TOTEN  =      -144.91680580 eV

  energy without entropy =     -144.92840174  energy(sigma->0) =     -144.92067112


--------------------------------------------------------------------------------------------------------




--------------------------------------- Iteration      2(   5)  ---------------------------------------


    POTLOK:  cpu time      3.3586: real time      3.3588
    SETDIJ:  cpu time      0.0038: real time      0.0038
     EDDAV:  cpu time     11.5797: real time     11.5801
       DOS:  cpu time      0.0005: real time      0.0005
    CHARGE:  cpu time      1.1107: real time      1.1108
    MIXING:  cpu time      0.0913: real time      0.0913
    --------------------------------------------
      LOOP:  cpu time     16.1445: real time     16.1453

 eigenvalue-minimisations  :    96
 total energy-change (2. order) :-0.2611679E-04  (-0.4729028E-05)
 number of electron      58.0000018 magnetization 
 augmentation part        1.2612090 magnetization 

 Broyden mixing:
  rms(total) = 0.97300E-03    rms(broyden)= 0.97219E-03
  rms(prec ) = 0.98522E-03
  weight for this iteration     100.00

 eigenvalues of (default mixing * dielectric matrix)
  average eigenvalue GAMMA=   1.4606
  2.3137  0.9534  1.2876  1.2876

 Free energy of the ion-electron system (eV)
  ---------------------------------------------------
  alpha Z        PSCENC =         0.98165661
  Ewald energy   TEWEN  =      5856.78465975
  -Hartree energ DENC   =     -7370.56954729
  -exchange      EXHF   =         0.00000000
  -V(xc)+E(xc)   XCENC  =       190.84830819
  PAW double counting   =      4824.75889328    -4832.65308429
  entropy T*S    EENTRO =         0.01159594
  eigenvalues    EBANDS =      -703.23055923
  atomic energy  EATOM  =      1888.15124511
  Solvation  Ediel_sol  =         0.00000000
  ---------------------------------------------------
  free energy    TOTEN  =      -144.91683192 eV

  energy without entropy =     -144.92842786  energy(sigma->0) =     -144.92069724


--------------------------------------------------------------------------------------------------------




--------------------------------------- Iteration      2(   6)  ---------------------------------------


    POTLOK:  cpu time      3.2695: real time      3.2696
    SETDIJ:  cpu time      0.0035: real time      0.0035
     EDDAV:  cpu time      8.9333: real time      8.9337
       DOS:  cpu time      0.0006: real time      0.0006
    --------------------------------------------
      LOOP:  cpu time     12.2069: real time     12.2073

 eigenvalue-minimisations  :    72
 total energy-change (2. order) :-0.9166872E-05  (-0.4792818E-06)
 number of electron      58.0000018 magnetization 
 augmentation part        1.2612090 magnetization 

 Free energy of the ion-electron system (eV)
  ---------------------------------------------------
  alpha Z        PSCENC =         0.98165661
  Ewald energy   TEWEN  =      5856.78465975
  -Hartree energ DENC   =     -7370.58684296
  -exchange      EXHF   =         0.00000000
  -V(xc)+E(xc)   XCENC  =       190.84962373
  PAW double counting   =      4824.87934125    -4832.77401968
  entropy T*S    EENTRO =         0.01159594
  eigenvalues    EBANDS =      -703.21410085
  atomic energy  EATOM  =      1888.15124511
  Solvation  Ediel_sol  =         0.00000000
  ---------------------------------------------------
  free energy    TOTEN  =      -144.91684109 eV

  energy without entropy =     -144.92843703  energy(sigma->0) =     -144.92070640


--------------------------------------------------------------------------------------------------------




 average (electrostatic) potential at core
  the test charge radii are     0.6991  0.5201
  (the norm of the test charge is              1.0000)
       1 -59.1996       2 -58.9508       3 -58.9627       4 -58.9410       5 -58.9627
       6 -58.9508       7 -58.9404       8 -58.9621       9 -58.9503      10 -59.1991
      11 -58.9503      12 -58.9622      13 -41.9427      14 -41.9489      15 -41.9468
      16 -41.9490      17 -41.9429      18 -41.9475      19 -41.9483      20 -41.9425
      21 -41.9423      22 -41.9480



 E-fermi :  -5.4889     XC(G=0):  -0.2271     alpha+bet : -0.0924

 Fermi energy:        -5.4889441605

 k-point     1 :       0.0000    0.0000    0.0000
  band No.  band energies     occupation 
      1     -21.6387      2.00000
      2     -21.0475      2.00000
      3     -19.2987      2.00000
      4     -18.5417      2.00000
      5     -18.3388      2.00000
      6     -17.7821      2.00000
      7     -15.3867      2.00000
      8     -15.2086      2.00000
      9     -14.4576      2.00000
     10     -14.1421      2.00000
     11     -13.0347      2.00000
     12     -12.1207      2.00000
     13     -11.3570      2.00000
     14     -11.3424      2.00000
     15     -10.6179      2.00000
     16     -10.5738      2.00000
     17     -10.2120      2.00000
     18     -10.1569      2.00000
     19     -10.0140      2.00000
     20      -9.2849      2.00000
     21      -8.8355      2.00000
     22      -8.7067      2.00000
     23      -8.3546      2.00000
     24      -8.0640      2.00000
     25      -7.9023      2.00000
     26      -6.9008      2.00000
     27      -6.3272      2.00000
     28      -6.3020      2.00000
     29      -5.6573      2.00000
     30      -1.8128     -0.00000
     31      -1.2681     -0.00000
     32      -1.1405     -0.00000
     33      -0.4901     -0.00000
     34      -0.4386     -0.00000
     35      -0.2610     -0.00000
     36      -0.0660     -0.00000
     37       0.0290      0.00000
     38       0.1473      0.00000
     39       0.1656      0.00000
     40       0.1846      0.00000
     41       0.2053      0.00000
     42       0.3233      0.00000
     43       0.3321      0.00000
     44       0.4247      0.00000


--------------------------------------------------------------------------------------------------------


 soft charge-density along one line, spin component           1
         0         1         2         3         4         5         6         7         8         9
 total charge-density along one line

 pseudopotential strength for first ion, spin component:           1
 10.266  13.654  -0.000  -0.000   0.000   0.000   0.000  -0.000
 13.654  18.158  -0.000  -0.000   0.000   0.000   0.000  -0.000
 -0.000  -0.000  -4.408  -0.000  -0.000   8.624   0.001   0.000
 -0.000  -0.000  -0.000  -4.402  -0.000   0.001   8.618   0.000
  0.000   0.000  -0.000  -0.000  -4.408   0.000   0.000   8.625
  0.000   0.000   8.624   0.001   0.000 -19.014  -0.000  -0.000
  0.000   0.000   0.001   8.618   0.000  -0.000 -19.012  -0.000
 -0.000  -0.000   0.000   0.000   8.625  -0.000  -0.000 -19.017
 total augmentation occupancy for first ion, spin component:           1
  7.070  -3.006  -0.000   0.000  -0.100  -0.000   0.000  -0.021
 -3.006   1.357   0.000  -0.000   0.045   0.000  -0.000   0.010
 -0.000   0.000   1.925   0.043   0.000   0.203   0.006   0.000
  0.000  -0.000   0.043   1.259   0.000   0.006   0.104   0.000
 -0.100   0.045   0.000   0.000   1.845   0.000   0.000   0.195
 -0.000   0.000   0.203   0.006   0.000   0.023   0.001   0.000
  0.000  -0.000   0.006   0.104   0.000   0.001   0.009   0.000
 -0.021   0.010   0.000   0.000   0.195   0.000   0.000   0.022


------------------------ aborting loop because EDIFF is reached ----------------------------------------


    CHARGE:  cpu time      1.1114: real time      1.1115
    FORLOC:  cpu time      0.3394: real time      0.3394
    FORNL :  cpu time      1.7231: real time      1.7231
    STRESS:  cpu time      8.3609: real time      8.3611
    FORCOR:  cpu time      3.2139: real time      3.2140
    FORHAR:  cpu time      1.0992: real time      1.0992
    MIXING:  cpu time      0.0897: real time      0.0897
    OFIELD:  cpu time      0.0000: real time      0.0000

 ---------------------------------------------------------------------------------------------

         DFTD3 V3.0 Rev 1        
 Edisp (eV)   -0.71683

 E6    (eV) :    -0.4985
 E8    (eV) :    -0.2183
 % E8        : 30.46
    FORVDW:  cpu time      0.0043: real time      0.0043

  FORCE on cell =-STRESS in cart. coord.  units (eV):
  Direction    XX          YY          ZZ          XY          YZ          ZX
  --------------------------------------------------------------------------------------
  Alpha Z     0.98166     0.98166     0.98166
  Ewald    2580.86199  2529.92180   746.00015    -0.00471   846.21898     0.00735
  Hartree  2570.05421  2948.46391  1852.00649    -0.00495   512.27139     0.00813
  E(xc)    -207.07212  -208.71003  -212.38197     0.00000     1.78887    -0.00001
  Local   -5687.20178 -6036.42698 -3221.67022     0.00982 -1326.52721    -0.01595
  n-local   -70.18681   -69.76546   -65.65859     0.00000    -2.00420     0.00004
  augment    -3.04789    -2.99156    -2.74553    -0.00000    -0.12014     0.00000
  Kinetic   805.53993   827.17592   891.75511    -0.00013   -31.45721     0.00034
  Fock        0.00000     0.00000     0.00000     0.00000     0.00000     0.00000
  vdW        -0.43281    -0.17280    -0.05272     0.00000    -0.05848    -0.00000
  -------------------------------------------------------------------------------------
  Total     -10.50362   -11.52356   -11.76562     0.00003     0.11201    -0.00009
  in kB      -1.05179    -1.15392    -1.17816     0.00000     0.01122    -0.00001
  external pressure =       -1.13 kB  Pullay stress =        0.00 kB


 VOLUME and BASIS-vectors are now :
 -----------------------------------------------------------------------------
  energy-cutoff  :      315.00
  volume of cell :    16000.00
      direct lattice vectors                 reciprocal lattice vectors
    40.000000000  0.000000000  0.000000000     0.025000000  0.000000000  0.000000000
     0.000000000 20.000000000  0.000000000     0.000000000  0.050000000  0.000000000
     0.000000000  0.000000000 20.000000000     0.000000000  0.000000000  0.050000000

  length of vectors
    40.000000000 20.000000000 20.000000000     0.025000000  0.050000000  0.050000000


 FORCES acting on ions
    electron-ion (+dipol)            ewald-force                    non-local-force                 convergence-correction
 -----------------------------------------------------------------------------------------------
   0.852E+00 -.165E-02 0.292E-02   -.112E+01 0.203E-02 -.287E-02   -.289E-01 0.347E-03 0.677E-04   0.506E-02 -.777E-05 0.123E-05
   0.136E+02 0.183E+03 0.673E+01   -.131E+02 -.184E+03 -.676E+01   -.331E+00 0.878E+00 0.210E-01   0.264E-02 0.317E-02 0.236E-03
   0.150E+03 0.166E+03 0.953E+01   -.150E+03 -.167E+03 -.964E+01   0.516E+00 0.699E+00 0.993E-01   0.113E-02 0.173E-02 0.493E-04
   0.232E+03 -.337E-03 0.136E-02   -.233E+03 0.483E-03 -.129E-02   0.934E+00 0.217E-03 -.707E-05   0.206E-02 -.578E-05 -.675E-06
   0.150E+03 -.166E+03 -.953E+01   -.150E+03 0.167E+03 0.964E+01   0.516E+00 -.699E+00 -.993E-01   0.112E-02 -.172E-02 -.498E-04
   0.136E+02 -.183E+03 -.672E+01   -.131E+02 0.184E+03 0.676E+01   -.332E+00 -.879E+00 -.210E-01   0.265E-02 -.317E-02 -.235E-03
   -.232E+03 0.160E-02 -.183E-02   0.233E+03 -.177E-02 0.161E-02   -.936E+00 -.187E-03 -.148E-03   -.203E-02 -.123E-05 -.905E-06
   -.150E+03 0.126E+03 0.109E+03   0.150E+03 -.127E+03 -.110E+03   -.515E+00 0.570E+00 0.416E+00   -.113E-02 0.131E-02 0.116E-02
   -.135E+02 0.136E+03 0.123E+03   0.130E+02 -.136E+03 -.124E+03   0.331E+00 0.645E+00 0.599E+00   -.265E-02 0.246E-02 0.202E-02
   -.853E+00 0.118E-02 -.267E-02   0.113E+01 -.137E-02 0.251E-02   0.298E-01 -.268E-03 -.211E-03   -.508E-02 0.230E-05 0.327E-05
   -.135E+02 -.136E+03 -.123E+03   0.130E+02 0.136E+03 0.124E+03   0.331E+00 -.645E+00 -.599E+00   -.264E-02 -.247E-02 -.203E-02
   -.150E+03 -.126E+03 -.109E+03   0.150E+03 0.127E+03 0.110E+03   -.514E+00 -.570E+00 -.416E+00   -.114E-02 -.132E-02 -.117E-02
   -.162E+02 0.838E+02 0.493E+00   0.189E+02 -.885E+02 -.625E+00   -.273E+01 0.480E+01 0.137E+00   0.532E-03 0.309E-03 0.548E-04
   0.508E+02 0.721E+02 0.365E+01   -.535E+02 -.768E+02 -.389E+01   0.274E+01 0.479E+01 0.246E+00   -.990E-04 -.808E-04 -.577E-07
   0.892E+02 -.196E-03 -.381E-03   -.946E+02 0.185E-03 0.430E-03   0.553E+01 -.413E-04 -.426E-04   -.198E-03 -.223E-06 -.163E-06
   0.508E+02 -.721E+02 -.365E+01   -.535E+02 0.768E+02 0.389E+01   0.274E+01 -.479E+01 -.247E+00   -.101E-03 0.823E-04 -.141E-06
   -.162E+02 -.838E+02 -.493E+00   0.189E+02 0.885E+02 0.626E+00   -.273E+01 -.480E+01 -.137E+00   0.534E-03 -.308E-03 -.549E-04
   -.892E+02 -.668E-03 0.776E-03   0.947E+02 0.747E-03 -.821E-03   -.553E+01 -.479E-04 0.101E-03   0.199E-03 -.912E-06 -.570E-06
   -.508E+02 0.542E+02 0.478E+02   0.535E+02 -.577E+02 -.509E+02   -.274E+01 0.360E+01 0.317E+01   0.102E-03 -.524E-04 -.536E-04
   0.162E+02 0.604E+02 0.582E+02   -.189E+02 -.639E+02 -.614E+02   0.273E+01 0.354E+01 0.325E+01   -.539E-03 0.264E-03 0.179E-03
   0.162E+02 -.604E+02 -.582E+02   -.189E+02 0.639E+02 0.614E+02   0.273E+01 -.354E+01 -.325E+01   -.538E-03 -.265E-03 -.180E-03
   -.508E+02 -.542E+02 -.478E+02   0.535E+02 0.577E+02 0.509E+02   -.274E+01 -.360E+01 -.317E+01   0.101E-03 0.516E-04 0.533E-04
 -----------------------------------------------------------------------------------------------
   0.157E-02 0.280E-03 -.654E-03   0.107E-12 0.355E-13 0.355E-13   -.151E-02 -.254E-03 0.675E-03   -.205E-04 -.248E-04 -.149E-04


 POSITION                                       TOTAL-FORCE (eV/Angst)
 -----------------------------------------------------------------------------------
     19.26488      9.99999      9.99996        -0.288362      0.000723      0.000124
     18.53750      8.79751      9.92501         0.178646     -0.231584     -0.012873
     17.14277      8.79651      9.92517        -0.099387     -0.244003     -0.016365
     16.43867     10.00000      9.99996        -0.294562      0.000357      0.000058
     17.14276     11.20350     10.07476        -0.098275      0.243468      0.016381
     18.53751     11.20251     10.07492         0.177514      0.230485      0.012901
     23.56058      9.99999     10.00000         0.290943     -0.000353     -0.000367
     22.85641      9.08590      9.21361         0.101144     -0.184626     -0.159546
     21.46172      9.08645      9.21443        -0.180063     -0.171728     -0.152196
     20.73430      9.99999      9.99999         0.289935     -0.000457     -0.000365
     21.46172     10.91352     10.78555        -0.181194      0.172356      0.152592
     22.85639     10.91407     10.78636         0.102515      0.185705      0.160334
     19.08192      7.84193      9.89262        -0.063455      0.102811      0.004999
     16.59812      7.84186      9.87599         0.069241      0.108387      0.004973
     15.33921     10.00000      9.99997         0.115985     -0.000052      0.000006
     16.59812     12.15814     10.12401         0.069017     -0.108096     -0.005099
     19.08192     12.15808     10.10732        -0.063125     -0.102390     -0.004984
     24.65995     10.00000      9.99998        -0.113933      0.000030      0.000055
     23.40108      8.36787      8.58258        -0.068940      0.081802      0.071832
     20.91729      8.37936      8.57088         0.062763      0.077727      0.067404
     20.91729     11.62066     11.42906         0.063047     -0.078062     -0.067616
     23.40109     11.63217     11.41735        -0.069453     -0.082499     -0.072250
 -----------------------------------------------------------------------------------
    total drift:                                0.000031      0.000001      0.000006


--------------------------------------------------------------------------------------------------------



  FREE ENERGIE OF THE ION-ELECTRON SYSTEM (eV)
  ---------------------------------------------------
  free  energy   TOTEN  =      -145.63366651 eV

  energy  without entropy=     -145.64526245  energy(sigma->0) =     -145.63753182

 d Force =-0.6029573E-03[-0.155E-01, 0.143E-01]  d Energy =-0.6997973E-03 0.968E-04
 d Force = 0.4524924E+01[ 0.448E+01, 0.457E+01]  d Ewald  = 0.4524817E+01 0.107E-03


--------------------------------------------------------------------------------------------------------


    POTLOK:  cpu time      3.2183: real time      3.2184


--------------------------------------------------------------------------------------------------------


 Steepest descent step on ions:
 trial-energy change:    0.000700  1 .order    0.000603   -0.014329    0.015535
  (g-gl).g = 0.143E-01      g.g   = 0.143E-01  gl.gl    = 0.000E+00
 g(Force)  = 0.143E-01   g(Stress)= 0.000E+00 ortho     = 0.000E+00
 gamma     =   0.00000
 trial     =   1.00000
 opt step  =   0.47496  (harmonic =   0.47981) maximal distance =0.00369020
 next E    =  -145.637759   (d E  =  -0.00339)


--------------------------------------------------------------------------------------------------------


    WAVPRE:  cpu time      0.8080: real time      0.8080
    FEWALD:  cpu time      0.0006: real time      0.0006
    ORTHCH:  cpu time      1.0200: real time      1.0200
     LOOP+:  cpu time    115.5965: real time    115.6069


--------------------------------------- Iteration      3(   1)  ---------------------------------------


    POTLOK:  cpu time      3.2012: real time      3.2013
    SETDIJ:  cpu time      0.0032: real time      0.0032
     EDDAV:  cpu time     10.8422: real time     10.8426
       DOS:  cpu time      0.0002: real time      0.0002
    CHARGE:  cpu time      1.0953: real time      1.0953
    MIXING:  cpu time      0.0823: real time      0.0823
    --------------------------------------------
      LOOP:  cpu time     15.2245: real time     15.2250

 eigenvalue-minimisations  :    96
 total energy-change (2. order) :-0.3994751E-02  (-0.1314528E-01)
 number of electron      58.0000016 magnetization 
 augmentation part        1.2643471 magnetization 

 Broyden mixing:
  rms(total) = 0.13922E-01    rms(broyden)= 0.13898E-01
  rms(prec ) = 0.14096E-01
  weight for this iteration     100.00

 Free energy of the ion-electron system (eV)
  ---------------------------------------------------
  alpha Z        PSCENC =         0.98165661
  Ewald energy   TEWEN  =      5859.14796681
  -Hartree energ DENC   =     -7371.97919633
  -exchange      EXHF   =         0.00000000
  -V(xc)+E(xc)   XCENC  =       190.91496282
  PAW double counting   =      4824.76351636    -4832.65848730
  entropy T*S    EENTRO =         0.01159594
  eigenvalues    EBANDS =      -704.25408668
  atomic energy  EATOM  =      1888.15124511
  Solvation  Ediel_sol  =         0.00000000
  ---------------------------------------------------
  free energy    TOTEN  =      -144.92082667 eV

  energy without entropy =     -144.93242261  energy(sigma->0) =     -144.92469198


--------------------------------------------------------------------------------------------------------




--------------------------------------- Iteration      3(   2)  ---------------------------------------


    POTLOK:  cpu time      3.2561: real time      3.2562
    SETDIJ:  cpu time      0.0052: real time      0.0052
     EDDAV:  cpu time     12.8942: real time     12.8948
       DOS:  cpu time      0.0011: real time      0.0011
    CHARGE:  cpu time      1.1155: real time      1.1155
    MIXING:  cpu time      0.0869: real time      0.0869
    --------------------------------------------
      LOOP:  cpu time     17.3590: real time     17.3598

 eigenvalue-minimisations  :   116
 total energy-change (2. order) : 0.8793506E-04  (-0.3321172E-03)
 number of electron      58.0000016 magnetization 
 augmentation part        1.2640531 magnetization 

 Broyden mixing:
  rms(total) = 0.87205E-02    rms(broyden)= 0.87139E-02
  rms(prec ) = 0.88367E-02
  weight for this iteration     100.00

 eigenvalues of (default mixing * dielectric matrix)
  average eigenvalue GAMMA=   1.8269
  1.8269

 Free energy of the ion-electron system (eV)
  ---------------------------------------------------
  alpha Z        PSCENC =         0.98165661
  Ewald energy   TEWEN  =      5859.14796681
  -Hartree energ DENC   =     -7372.28509516
  -exchange      EXHF   =         0.00000000
  -V(xc)+E(xc)   XCENC  =       190.93476216
  PAW double counting   =      4830.95035196    -4838.84957442
  entropy T*S    EENTRO =         0.01159595
  eigenvalues    EBANDS =      -703.96364775
  atomic energy  EATOM  =      1888.15124511
  Solvation  Ediel_sol  =         0.00000000
  ---------------------------------------------------
  free energy    TOTEN  =      -144.92073874 eV

  energy without entropy =     -144.93233469  energy(sigma->0) =     -144.92460405


--------------------------------------------------------------------------------------------------------




--------------------------------------- Iteration      3(   3)  ---------------------------------------


    POTLOK:  cpu time      3.3637: real time      3.3639
    SETDIJ:  cpu time      0.0037: real time      0.0037
     EDDAV:  cpu time     12.5101: real time     12.5234
       DOS:  cpu time      0.0009: real time      0.0009
    CHARGE:  cpu time      1.1142: real time      1.1142
    MIXING:  cpu time      0.0865: real time      0.0865
    --------------------------------------------
      LOOP:  cpu time     17.0792: real time     17.0927

 eigenvalue-minimisations  :   112
 total energy-change (2. order) : 0.3207143E-04  (-0.7054213E-04)
 number of electron      58.0000016 magnetization 
 augmentation part        1.2636433 magnetization 

 Broyden mixing:
  rms(total) = 0.26253E-02    rms(broyden)= 0.26187E-02
  rms(prec ) = 0.26764E-02
  weight for this iteration     100.00

 eigenvalues of (default mixing * dielectric matrix)
  average eigenvalue GAMMA=   1.4558
  0.9177  1.9940

 Free energy of the ion-electron system (eV)
  ---------------------------------------------------
  alpha Z        PSCENC =         0.98165661
  Ewald energy   TEWEN  =      5859.14796681
  -Hartree energ DENC   =     -7372.68403372
  -exchange      EXHF   =         0.00000000
  -V(xc)+E(xc)   XCENC  =       190.95579598
  PAW double counting   =      4837.07586049    -4844.97900493
  entropy T*S    EENTRO =         0.01159597
  eigenvalues    EBANDS =      -703.58178899
  atomic energy  EATOM  =      1888.15124511
  Solvation  Ediel_sol  =         0.00000000
  ---------------------------------------------------
  free energy    TOTEN  =      -144.92070667 eV

  energy without entropy =     -144.93230263  energy(sigma->0) =     -144.92457199


--------------------------------------------------------------------------------------------------------




--------------------------------------- Iteration      3(   4)  ---------------------------------------


    POTLOK:  cpu time      3.8417: real time      3.8480
    SETDIJ:  cpu time      0.0038: real time      0.0038
     EDDAV:  cpu time     13.1659: real time     13.1817
       DOS:  cpu time      0.0009: real time      0.0009
    --------------------------------------------
      LOOP:  cpu time     17.0123: real time     17.0345

 eigenvalue-minimisations  :   120
 total energy-change (2. order) : 0.2674346E-05  (-0.8757766E-05)
 number of electron      58.0000016 magnetization 
 augmentation part        1.2636433 magnetization 

 Free energy of the ion-electron system (eV)
  ---------------------------------------------------
  alpha Z        PSCENC =         0.98165661
  Ewald energy   TEWEN  =      5859.14796681
  -Hartree energ DENC   =     -7372.69999230
  -exchange      EXHF   =         0.00000000
  -V(xc)+E(xc)   XCENC  =       190.95594583
  PAW double counting   =      4838.11538795    -4846.01814403
  entropy T*S    EENTRO =         0.01159596
  eigenvalues    EBANDS =      -703.56636593
  atomic energy  EATOM  =      1888.15124511
  Solvation  Ediel_sol  =         0.00000000
  ---------------------------------------------------
  free energy    TOTEN  =      -144.92070399 eV

  energy without entropy =     -144.93229995  energy(sigma->0) =     -144.92456931


--------------------------------------------------------------------------------------------------------




 average (electrostatic) potential at core
  the test charge radii are     0.6991  0.5201
  (the norm of the test charge is              1.0000)
       1 -59.1979       2 -58.9415       3 -58.9537       4 -58.9320       5 -58.9537
       6 -58.9415       7 -58.9316       8 -58.9533       9 -58.9411      10 -59.1975
      11 -58.9412      12 -58.9533      13 -41.9830      14 -41.9850      15 -41.9813
      16 -41.9850      17 -41.9830      18 -41.9816      19 -41.9844      20 -41.9826
      21 -41.9826      22 -41.9844



 E-fermi :  -5.4920     XC(G=0):  -0.2319     alpha+bet : -0.0924

 Fermi energy:        -5.4920296645

 k-point     1 :       0.0000    0.0000    0.0000
  band No.  band energies     occupation 
      1     -21.6320      2.00000
      2     -21.0469      2.00000
      3     -19.2859      2.00000
      4     -18.5513      2.00000
      5     -18.3488      2.00000
      6     -17.7872      2.00000
      7     -15.3828      2.00000
      8     -15.2199      2.00000
      9     -14.4759      2.00000
     10     -14.1557      2.00000
     11     -13.0498      2.00000
     12     -12.1405      2.00000
     13     -11.3776      2.00000
     14     -11.3353      2.00000
     15     -10.6160      2.00000
     16     -10.6010      2.00000
     17     -10.2306      2.00000
     18     -10.1565      2.00000
     19     -10.0318      2.00000
     20      -9.2832      2.00000
     21      -8.8345      2.00000
     22      -8.7180      2.00000
     23      -8.3665      2.00000
     24      -8.0522      2.00000
     25      -7.9199      2.00000
     26      -6.8928      2.00000
     27      -6.3276      2.00000
     28      -6.3024      2.00000
     29      -5.6604      2.00000
     30      -1.8040     -0.00000
     31      -1.2692     -0.00000
     32      -1.1422     -0.00000
     33      -0.5011     -0.00000
     34      -0.4448     -0.00000
     35      -0.2700     -0.00000
     36      -0.0861     -0.00000
     37       0.0256      0.00000
     38       0.1489      0.00000
     39       0.1591      0.00000
     40       0.1667      0.00000
     41       0.2000      0.00000
     42       0.3008      0.00000
     43       0.3322      0.00000
     44       0.3992      0.00000


--------------------------------------------------------------------------------------------------------


 soft charge-density along one line, spin component           1
         0         1         2         3         4         5         6         7         8         9
 total charge-density along one line

 pseudopotential strength for first ion, spin component:           1
 10.266  13.654  -0.000   0.000   0.000   0.000  -0.000  -0.000
 13.654  18.158  -0.000   0.000   0.000   0.000  -0.000  -0.000
 -0.000  -0.000  -4.408  -0.000  -0.000   8.625   0.001   0.000
  0.000   0.000  -0.000  -4.402  -0.000   0.001   8.618   0.000
  0.000   0.000  -0.000  -0.000  -4.408   0.000   0.000   8.625
  0.000   0.000   8.625   0.001   0.000 -19.015  -0.000   0.000
 -0.000  -0.000   0.001   8.618   0.000  -0.000 -19.013  -0.000
 -0.000  -0.000   0.000   0.000   8.625   0.000  -0.000 -19.017
 total augmentation occupancy for first ion, spin component:           1
  7.057  -2.998  -0.000   0.000  -0.105  -0.000   0.000  -0.022
 -2.998   1.353   0.000  -0.000   0.045   0.000  -0.000   0.010
 -0.000   0.000   1.928   0.043   0.000   0.204   0.006   0.000
  0.000  -0.000   0.043   1.259   0.000   0.006   0.104   0.000
 -0.105   0.045   0.000   0.000   1.837   0.000   0.000   0.194
 -0.000   0.000   0.204   0.006   0.000   0.023   0.001   0.000
  0.000  -0.000   0.006   0.104   0.000   0.001   0.009   0.000
 -0.022   0.010   0.000   0.000   0.194   0.000   0.000   0.022


------------------------ aborting loop because EDIFF is reached ----------------------------------------


    CHARGE:  cpu time      1.1238: real time      1.1239
    FORLOC:  cpu time      0.3376: real time      0.3376
    FORNL :  cpu time      1.7258: real time      1.7260
    STRESS:  cpu time      8.5399: real time      8.5410
    FORCOR:  cpu time      3.2408: real time      3.2412
    FORHAR:  cpu time      1.1089: real time      1.1090
    MIXING:  cpu time      0.0861: real time      0.0863
    OFIELD:  cpu time      0.0000: real time      0.0000

 ---------------------------------------------------------------------------------------------

         DFTD3 V3.0 Rev 1        
 Edisp (eV)   -0.71705

 E6    (eV) :    -0.4987
 E8    (eV) :    -0.2184
 % E8        : 30.46
    FORVDW:  cpu time      0.0043: real time      0.0043

  FORCE on cell =-STRESS in cart. coord.  units (eV):
  Direction    XX          YY          ZZ          XY          YZ          ZX
  --------------------------------------------------------------------------------------
  Alpha Z     0.98166     0.98166     0.98166
  Ewald    2580.66915  2531.92706   746.55088    -0.00513   846.90180     0.00862
  Hartree  2570.84797  2949.26746  1852.61622    -0.00499   512.35149     0.00909
  E(xc)    -207.19492  -208.82677  -212.49768     0.00000     1.78833    -0.00001
  Local   -5687.86219 -6038.82610 -3222.83019     0.01024 -1327.09023    -0.01811
  n-local   -70.46963   -70.03497   -65.86188    -0.00001    -2.03633     0.00004
  augment    -3.04988    -2.99689    -2.74602    -0.00000    -0.12246     0.00000
  Kinetic   806.47498   827.81274   892.24644    -0.00004   -31.38767     0.00034
  Fock        0.00000     0.00000     0.00000     0.00000     0.00000     0.00000
  vdW        -0.43327    -0.17375    -0.05298     0.00000    -0.05881    -0.00000
  -------------------------------------------------------------------------------------
  Total     -10.03612   -10.86956   -11.59355     0.00005     0.34611    -0.00002
  in kB      -1.00498    -1.08843    -1.16093     0.00001     0.03466    -0.00000
  external pressure =       -1.08 kB  Pullay stress =        0.00 kB


 VOLUME and BASIS-vectors are now :
 -----------------------------------------------------------------------------
  energy-cutoff  :      315.00
  volume of cell :    16000.00
      direct lattice vectors                 reciprocal lattice vectors
    40.000000000  0.000000000  0.000000000     0.025000000  0.000000000  0.000000000
     0.000000000 20.000000000  0.000000000     0.000000000  0.050000000  0.000000000
     0.000000000  0.000000000 20.000000000     0.000000000  0.000000000  0.050000000

  length of vectors
    40.000000000 20.000000000 20.000000000     0.025000000  0.050000000  0.050000000


 FORCES acting on ions
    electron-ion (+dipol)            ewald-force                    non-local-force                 convergence-correction
 -----------------------------------------------------------------------------------------------
   0.879E-01 -.165E-02 0.326E-02   -.224E+00 0.177E-02 -.324E-02   0.630E-01 0.925E-04 0.610E-04   -.826E-02 0.195E-04 -.665E-06
   0.135E+02 0.183E+03 0.671E+01   -.130E+02 -.184E+03 -.674E+01   -.363E+00 0.948E+00 0.237E-01   -.766E-02 -.610E-02 -.543E-03
   0.150E+03 0.166E+03 0.949E+01   -.150E+03 -.167E+03 -.960E+01   0.538E+00 0.751E+00 0.101E+00   0.675E-03 -.503E-03 0.350E-04
   0.231E+03 -.296E-03 0.126E-02   -.232E+03 0.307E-03 -.119E-02   0.998E+00 0.511E-04 -.439E-04   0.144E-02 0.249E-04 0.506E-06
   0.150E+03 -.166E+03 -.949E+01   -.150E+03 0.167E+03 0.960E+01   0.538E+00 -.751E+00 -.101E+00   0.693E-03 0.506E-03 -.355E-04
   0.135E+02 -.183E+03 -.670E+01   -.130E+02 0.184E+03 0.673E+01   -.363E+00 -.948E+00 -.238E-01   -.769E-02 0.610E-02 0.541E-03
   -.231E+03 0.171E-02 -.216E-02   0.232E+03 -.175E-02 0.205E-02   -.999E+00 -.805E-04 -.760E-04   -.140E-02 0.492E-05 0.454E-05
   -.150E+03 0.126E+03 0.109E+03   0.150E+03 -.126E+03 -.110E+03   -.538E+00 0.610E+00 0.452E+00   -.704E-03 -.450E-03 -.422E-03
   -.135E+02 0.136E+03 0.123E+03   0.130E+02 -.136E+03 -.123E+03   0.363E+00 0.697E+00 0.644E+00   0.760E-02 -.479E-02 -.386E-02
   -.901E-01 0.134E-02 -.297E-02   0.226E+00 -.137E-02 0.291E-02   -.623E-01 -.112E-03 -.829E-04   0.820E-02 -.102E-04 -.896E-05
   -.135E+02 -.136E+03 -.123E+03   0.130E+02 0.136E+03 0.123E+03   0.363E+00 -.697E+00 -.644E+00   0.761E-02 0.479E-02 0.387E-02
   -.150E+03 -.126E+03 -.109E+03   0.150E+03 0.126E+03 0.110E+03   -.538E+00 -.609E+00 -.452E+00   -.683E-03 0.456E-03 0.430E-03
   -.163E+02 0.840E+02 0.512E+00   0.191E+02 -.889E+02 -.651E+00   -.277E+01 0.486E+01 0.140E+00   -.649E-03 -.521E-03 -.988E-04
   0.510E+02 0.723E+02 0.367E+01   -.538E+02 -.772E+02 -.392E+01   0.277E+01 0.485E+01 0.250E+00   0.300E-03 0.195E-03 0.120E-04
   0.895E+02 -.507E-04 -.372E-03   -.951E+02 0.454E-04 0.426E-03   0.560E+01 -.882E-05 -.400E-04   -.185E-03 0.163E-05 -.207E-06
   0.510E+02 -.723E+02 -.367E+01   -.538E+02 0.772E+02 0.392E+01   0.277E+01 -.485E+01 -.251E+00   0.305E-03 -.203E-03 -.129E-04
   -.163E+02 -.840E+02 -.512E+00   0.191E+02 0.889E+02 0.652E+00   -.277E+01 -.486E+01 -.140E+00   -.655E-03 0.513E-03 0.984E-04
   -.895E+02 -.748E-03 0.861E-03   0.951E+02 0.822E-03 -.928E-03   -.560E+01 -.683E-04 0.101E-03   0.219E-03 0.103E-05 0.665E-06
   -.510E+02 0.544E+02 0.479E+02   0.538E+02 -.581E+02 -.511E+02   -.277E+01 0.365E+01 0.321E+01   -.294E-03 0.131E-03 0.118E-03
   0.163E+02 0.606E+02 0.583E+02   -.191E+02 -.642E+02 -.616E+02   0.277E+01 0.358E+01 0.329E+01   0.644E-03 -.448E-03 -.296E-03
   0.163E+02 -.606E+02 -.583E+02   -.191E+02 0.642E+02 0.616E+02   0.277E+01 -.358E+01 -.329E+01   0.642E-03 0.452E-03 0.301E-03
   -.510E+02 -.544E+02 -.479E+02   0.538E+02 0.581E+02 0.511E+02   -.277E+01 -.365E+01 -.321E+01   -.294E-03 -.131E-03 -.117E-03
 -----------------------------------------------------------------------------------------------
   0.436E-03 0.548E-03 -.248E-03   0.142E-13 -.426E-13 0.142E-13   -.266E-03 -.583E-03 0.231E-03   -.142E-03 0.423E-04 0.139E-04


 POSITION                                       TOTAL-FORCE (eV/Angst)
 -----------------------------------------------------------------------------------
     19.26206     10.00000      9.99996        -0.072910      0.000231      0.000077
     18.53722      8.79667      9.92506         0.093984     -0.093066     -0.007144
     17.14242      8.79599      9.92525        -0.042177     -0.106963     -0.009496
     16.43822     10.00000      9.99996        -0.133077      0.000087      0.000030
     17.14242     11.20402     10.07469        -0.041816      0.106759      0.009557
     18.53722     11.20334     10.07487         0.093603      0.092665      0.007195
     23.56099      9.99999     10.00000         0.131976     -0.000124     -0.000184
     22.85676      9.08553      9.21322         0.042924     -0.081524     -0.068929
     21.46199      9.08584      9.21387        -0.094354     -0.069216     -0.061003
     20.73713      9.99999      9.99999         0.073536     -0.000147     -0.000154
     21.46199     10.91413     10.78611        -0.094783      0.069490      0.061055
     22.85675     10.91444     10.78676         0.043388      0.081911      0.069153
     19.07994      7.84557      9.89273         0.010577     -0.025876      0.000148
     16.60015      7.84543      9.87617        -0.008604     -0.021638     -0.001458
     15.34331     10.00000      9.99997        -0.028422     -0.000013      0.000013
     16.60015     12.15457     10.12383        -0.008685      0.021791      0.001320
     19.07993     12.15444     10.10721         0.010728      0.026039     -0.000138
     24.65587     10.00000      9.99998         0.029049      0.000007      0.000036
     23.39905      8.37053      8.58494         0.008779     -0.015544     -0.013949
     20.91929      8.38201      8.57334        -0.011221     -0.017512     -0.018313
     20.91929     11.61800     11.42660        -0.011116      0.017359      0.018269
     23.39905     11.62950     11.41499         0.008624      0.015283      0.013916
 -----------------------------------------------------------------------------------
    total drift:                                0.000028      0.000007     -0.000003


--------------------------------------------------------------------------------------------------------



  FREE ENERGIE OF THE ION-ELECTRON SYSTEM (eV)
  ---------------------------------------------------
  free  energy   TOTEN  =      -145.63775872 eV

  energy  without entropy=     -145.64935468  energy(sigma->0) =     -145.64162404

 d Force = 0.4051135E-02[-0.541E-04, 0.816E-02]  d Energy = 0.4092210E-02-0.411E-04
 d Force =-0.2363322E+01[-0.238E+01,-0.235E+01]  d Ewald  =-0.2363307E+01-0.151E-04


--------------------------------------------------------------------------------------------------------


    POTLOK:  cpu time      3.3192: real time      3.3195


--------------------------------------------------------------------------------------------------------




--------------------------------------------------------------------------------------------------------


    WAVPRE:  cpu time      0.8023: real time      0.8023
    FEWALD:  cpu time      0.0020: real time      0.0020
    ORTHCH:  cpu time      1.0313: real time      1.0314
     LOOP+:  cpu time     88.0014: real time     88.0409


--------------------------------------- Iteration      4(   1)  ---------------------------------------


    POTLOK:  cpu time      3.3010: real time      3.3014
    SETDIJ:  cpu time      0.0031: real time      0.0031
     EDDAV:  cpu time     10.9502: real time     10.9514
       DOS:  cpu time      0.0017: real time      0.0017
    CHARGE:  cpu time      1.0925: real time      1.0925
    MIXING:  cpu time      0.0815: real time      0.0815
    --------------------------------------------
      LOOP:  cpu time     15.4301: real time     15.4317

 eigenvalue-minimisations  :    96
 total energy-change (2. order) :-0.1623945E-02  (-0.7015639E-01)
 number of electron      58.0000017 magnetization 
 augmentation part        1.2587019 magnetization 

 Broyden mixing:
  rms(total) = 0.21340E-01    rms(broyden)= 0.21288E-01
  rms(prec ) = 0.21723E-01
  weight for this iteration     100.00

 Free energy of the ion-electron system (eV)
  ---------------------------------------------------
  alpha Z        PSCENC =         0.98165661
  Ewald energy   TEWEN  =      5846.19236283
  -Hartree energ DENC   =     -7361.87686675
  -exchange      EXHF   =         0.00000000
  -V(xc)+E(xc)   XCENC  =       190.79240330
  PAW double counting   =      4839.06074929    -4846.96341283
  entropy T*S    EENTRO =         0.01159613
  eigenvalues    EBANDS =      -701.27206430
  atomic energy  EATOM  =      1888.15124511
  Solvation  Ediel_sol  =         0.00000000
  ---------------------------------------------------
  free energy    TOTEN  =      -144.92233061 eV

  energy without entropy =     -144.93392674  energy(sigma->0) =     -144.92619599


--------------------------------------------------------------------------------------------------------




--------------------------------------- Iteration      4(   2)  ---------------------------------------


    POTLOK:  cpu time      3.3139: real time      3.3142
    SETDIJ:  cpu time      0.0032: real time      0.0032
     EDDAV:  cpu time     13.0034: real time     13.0059
       DOS:  cpu time      0.0005: real time      0.0005
    CHARGE:  cpu time      1.1170: real time      1.1173
    MIXING:  cpu time      0.0847: real time      0.0847
    --------------------------------------------
      LOOP:  cpu time     17.5227: real time     17.5258

 eigenvalue-minimisations  :   120
 total energy-change (2. order) : 0.1889259E-03  (-0.1207656E-02)
 number of electron      58.0000017 magnetization 
 augmentation part        1.2574305 magnetization 

 Broyden mixing:
  rms(total) = 0.14549E-01    rms(broyden)= 0.14539E-01
  rms(prec ) = 0.14798E-01
  weight for this iteration     100.00

 eigenvalues of (default mixing * dielectric matrix)
  average eigenvalue GAMMA=   1.1451
  1.1451

 Free energy of the ion-electron system (eV)
  ---------------------------------------------------
  alpha Z        PSCENC =         0.98165661
  Ewald energy   TEWEN  =      5846.19236283
  -Hartree energ DENC   =     -7361.09654417
  -exchange      EXHF   =         0.00000000
  -V(xc)+E(xc)   XCENC  =       190.76427524
  PAW double counting   =      4831.65888656    -4839.55282520
  entropy T*S    EENTRO =         0.01159607
  eigenvalues    EBANDS =      -702.03279474
  atomic energy  EATOM  =      1888.15124511
  Solvation  Ediel_sol  =         0.00000000
  ---------------------------------------------------
  free energy    TOTEN  =      -144.92214169 eV

  energy without entropy =     -144.93373776  energy(sigma->0) =     -144.92600704


--------------------------------------------------------------------------------------------------------




--------------------------------------- Iteration      4(   3)  ---------------------------------------


    POTLOK:  cpu time      3.2926: real time      3.2928
    SETDIJ:  cpu time      0.0054: real time      0.0054
     EDDAV:  cpu time     12.3004: real time     12.3023
       DOS:  cpu time      0.0006: real time      0.0006
    CHARGE:  cpu time      1.1144: real time      1.1145
    MIXING:  cpu time      0.0863: real time      0.0863
    --------------------------------------------
      LOOP:  cpu time     16.7998: real time     16.8020

 eigenvalue-minimisations  :   112
 total energy-change (2. order) : 0.3372602E-03  (-0.2096613E-03)
 number of electron      58.0000017 magnetization 
 augmentation part        1.2578303 magnetization 

 Broyden mixing:
  rms(total) = 0.83194E-02    rms(broyden)= 0.83154E-02
  rms(prec ) = 0.83609E-02
  weight for this iteration     100.00

 eigenvalues of (default mixing * dielectric matrix)
  average eigenvalue GAMMA=   1.3658
  1.3658  1.3658

 Free energy of the ion-electron system (eV)
  ---------------------------------------------------
  alpha Z        PSCENC =         0.98165661
  Ewald energy   TEWEN  =      5846.19236283
  -Hartree energ DENC   =     -7360.46976120
  -exchange      EXHF   =         0.00000000
  -V(xc)+E(xc)   XCENC  =       190.74457853
  PAW double counting   =      4819.06098676    -4826.94763089
  entropy T*S    EENTRO =         0.01159606
  eigenvalues    EBANDS =      -702.64683823
  atomic energy  EATOM  =      1888.15124511
  Solvation  Ediel_sol  =         0.00000000
  ---------------------------------------------------
  free energy    TOTEN  =      -144.92180442 eV

  energy without entropy =     -144.93340049  energy(sigma->0) =     -144.92566978


--------------------------------------------------------------------------------------------------------




--------------------------------------- Iteration      4(   4)  ---------------------------------------


    POTLOK:  cpu time      3.2905: real time      3.2910
    SETDIJ:  cpu time      0.0034: real time      0.0034
     EDDAV:  cpu time     12.9794: real time     12.9936
       DOS:  cpu time      0.0005: real time      0.0005
    CHARGE:  cpu time      1.1126: real time      1.1153
    MIXING:  cpu time      0.0875: real time      0.0878
    --------------------------------------------
      LOOP:  cpu time     17.4739: real time     17.4915

 eigenvalue-minimisations  :   120
 total energy-change (2. order) :-0.4258015E-04  (-0.2665276E-04)
 number of electron      58.0000017 magnetization 
 augmentation part        1.2578424 magnetization 

 Broyden mixing:
  rms(total) = 0.52876E-02    rms(broyden)= 0.52869E-02
  rms(prec ) = 0.53287E-02
  weight for this iteration     100.00

 eigenvalues of (default mixing * dielectric matrix)
  average eigenvalue GAMMA=   1.7226
  2.7606  1.1451  1.2620

 Free energy of the ion-electron system (eV)
  ---------------------------------------------------
  alpha Z        PSCENC =         0.98165661
  Ewald energy   TEWEN  =      5846.19236283
  -Hartree energ DENC   =     -7360.48708276
  -exchange      EXHF   =         0.00000000
  -V(xc)+E(xc)   XCENC  =       190.74517511
  PAW double counting   =      4809.78471040    -4817.67143358
  entropy T*S    EENTRO =         0.01159608
  eigenvalues    EBANDS =      -702.63007681
  atomic energy  EATOM  =      1888.15124511
  Solvation  Ediel_sol  =         0.00000000
  ---------------------------------------------------
  free energy    TOTEN  =      -144.92184700 eV

  energy without entropy =     -144.93344308  energy(sigma->0) =     -144.92571236


--------------------------------------------------------------------------------------------------------




--------------------------------------- Iteration      4(   5)  ---------------------------------------


    POTLOK:  cpu time      3.2935: real time      3.3028
    SETDIJ:  cpu time      0.0031: real time      0.0031
     EDDAV:  cpu time     11.5873: real time     11.6550
       DOS:  cpu time      0.0003: real time      0.0003
    CHARGE:  cpu time      1.1109: real time      1.1170
    MIXING:  cpu time      0.0899: real time      0.0903
    --------------------------------------------
      LOOP:  cpu time     16.0850: real time     16.1684

 eigenvalue-minimisations  :   104
 total energy-change (2. order) :-0.2319318E-04  (-0.1047963E-04)
 number of electron      58.0000017 magnetization 
 augmentation part        1.2580439 magnetization 

 Broyden mixing:
  rms(total) = 0.10760E-02    rms(broyden)= 0.10746E-02
  rms(prec ) = 0.10978E-02
  weight for this iteration     100.00

 eigenvalues of (default mixing * dielectric matrix)
  average eigenvalue GAMMA=   1.4320
  2.2054  1.0795  1.0795  1.3636

 Free energy of the ion-electron system (eV)
  ---------------------------------------------------
  alpha Z        PSCENC =         0.98165661
  Ewald energy   TEWEN  =      5846.19236283
  -Hartree energ DENC   =     -7360.31835064
  -exchange      EXHF   =         0.00000000
  -V(xc)+E(xc)   XCENC  =       190.73896306
  PAW double counting   =      4795.21641009    -4803.10115846
  entropy T*S    EENTRO =         0.01159608
  eigenvalues    EBANDS =      -702.79459488
  atomic energy  EATOM  =      1888.15124511
  Solvation  Ediel_sol  =         0.00000000
  ---------------------------------------------------
  free energy    TOTEN  =      -144.92187020 eV

  energy without entropy =     -144.93346627  energy(sigma->0) =     -144.92573556


--------------------------------------------------------------------------------------------------------




--------------------------------------- Iteration      4(   6)  ---------------------------------------


    POTLOK:  cpu time      3.2814: real time      3.3141
    SETDIJ:  cpu time      0.0032: real time      0.0033
     EDDAV:  cpu time     10.1877: real time     10.3191
       DOS:  cpu time      0.0001: real time      0.0001
    --------------------------------------------
      LOOP:  cpu time     13.4723: real time     13.6365

 eigenvalue-minimisations  :    88
 total energy-change (2. order) :-0.6628138E-05  (-0.1788839E-05)
 number of electron      58.0000017 magnetization 
 augmentation part        1.2580439 magnetization 

 Free energy of the ion-electron system (eV)
  ---------------------------------------------------
  alpha Z        PSCENC =         0.98165661
  Ewald energy   TEWEN  =      5846.19236283
  -Hartree energ DENC   =     -7360.32915643
  -exchange      EXHF   =         0.00000000
  -V(xc)+E(xc)   XCENC  =       190.73916750
  PAW double counting   =      4797.35102413    -4805.23592150
  entropy T*S    EENTRO =         0.01159607
  eigenvalues    EBANDS =      -702.78385115
  atomic energy  EATOM  =      1888.15124511
  Solvation  Ediel_sol  =         0.00000000
  ---------------------------------------------------
  free energy    TOTEN  =      -144.92187683 eV

  energy without entropy =     -144.93347290  energy(sigma->0) =     -144.92574218


--------------------------------------------------------------------------------------------------------




 average (electrostatic) potential at core
  the test charge radii are     0.6991  0.5201
  (the norm of the test charge is              1.0000)
       1 -59.2033       2 -58.9554       3 -58.9707       4 -58.9473       5 -58.9707
       6 -58.9554       7 -58.9468       8 -58.9702       9 -58.9549      10 -59.2028
      11 -58.9549      12 -58.9702      13 -41.9933      14 -41.9843      15 -41.9914
      16 -41.9842      17 -41.9932      18 -41.9914      19 -41.9839      20 -41.9929
      21 -41.9929      22 -41.9840



 E-fermi :  -5.4896     XC(G=0):  -0.2327     alpha+bet : -0.0924

 Fermi energy:        -5.4895502618

 k-point     1 :       0.0000    0.0000    0.0000
  band No.  band energies     occupation 
      1     -21.5994      2.00000
      2     -20.9923      2.00000
      3     -19.2604      2.00000
      4     -18.5265      2.00000
      5     -18.3179      2.00000
      6     -17.7680      2.00000
      7     -15.3627      2.00000
      8     -15.2189      2.00000
      9     -14.4710      2.00000
     10     -14.1379      2.00000
     11     -13.0256      2.00000
     12     -12.1172      2.00000
     13     -11.3981      2.00000
     14     -11.3127      2.00000
     15     -10.6167      2.00000
     16     -10.5930      2.00000
     17     -10.2284      2.00000
     18     -10.1501      2.00000
     19     -10.0222      2.00000
     20      -9.2550      2.00000
     21      -8.7980      2.00000
     22      -8.7181      2.00000
     23      -8.3853      2.00000
     24      -8.0373      2.00000
     25      -7.9456      2.00000
     26      -6.8812      2.00000
     27      -6.3100      2.00000
     28      -6.2845      2.00000
     29      -5.6579      2.00000
     30      -1.8091     -0.00000
     31      -1.3003     -0.00000
     32      -1.1739     -0.00000
     33      -0.4982     -0.00000
     34      -0.4635     -0.00000
     35      -0.2667     -0.00000
     36      -0.0954     -0.00000
     37       0.0260      0.00000
     38       0.1489      0.00000
     39       0.1576      0.00000
     40       0.1681      0.00000
     41       0.1945      0.00000
     42       0.3115      0.00000
     43       0.3299      0.00000
     44       0.3874      0.00000


--------------------------------------------------------------------------------------------------------


 soft charge-density along one line, spin component           1
         0         1         2         3         4         5         6         7         8         9
 total charge-density along one line

 pseudopotential strength for first ion, spin component:           1
 10.266  13.654   0.000   0.000   0.000  -0.000  -0.000  -0.000
 13.654  18.158   0.000   0.000   0.000  -0.000  -0.000   0.000
  0.000   0.000  -4.408  -0.000   0.000   8.625   0.001  -0.000
  0.000   0.000  -0.000  -4.402  -0.000   0.001   8.619   0.000
  0.000   0.000   0.000  -0.000  -4.408  -0.000   0.000   8.625
 -0.000  -0.000   8.625   0.001  -0.000 -19.017  -0.000   0.000
 -0.000  -0.000   0.001   8.619   0.000  -0.000 -19.015  -0.000
 -0.000   0.000  -0.000   0.000   8.625   0.000  -0.000 -19.019
 total augmentation occupancy for first ion, spin component:           1
  7.041  -2.989   0.000   0.000  -0.103   0.000   0.000  -0.021
 -2.989   1.348   0.000  -0.000   0.044  -0.000  -0.000   0.010
  0.000   0.000   1.926   0.043  -0.000   0.204   0.006  -0.000
  0.000  -0.000   0.043   1.258   0.000   0.006   0.104   0.000
 -0.103   0.044  -0.000   0.000   1.834  -0.000   0.000   0.193
  0.000  -0.000   0.204   0.006  -0.000   0.023   0.001  -0.000
  0.000  -0.000   0.006   0.104   0.000   0.001   0.009   0.000
 -0.021   0.010  -0.000   0.000   0.193  -0.000   0.000   0.022


------------------------ aborting loop because EDIFF is reached ----------------------------------------


    CHARGE:  cpu time      1.1081: real time      1.1144
    FORLOC:  cpu time      0.3355: real time      0.3368
    FORNL :  cpu time      1.7123: real time      1.7278
    STRESS:  cpu time      8.3782: real time      8.4346
    FORCOR:  cpu time      3.2502: real time      3.2504
    FORHAR:  cpu time      1.1139: real time      1.1140
    MIXING:  cpu time      0.0920: real time      0.0920
    OFIELD:  cpu time      0.0000: real time      0.0000

 ---------------------------------------------------------------------------------------------

         DFTD3 V3.0 Rev 1        
 Edisp (eV)   -0.71639

 E6    (eV) :    -0.4982
 E8    (eV) :    -0.2182
 % E8        : 30.46
    FORVDW:  cpu time      0.0041: real time      0.0041

  FORCE on cell =-STRESS in cart. coord.  units (eV):
  Direction    XX          YY          ZZ          XY          YZ          ZX
  --------------------------------------------------------------------------------------
  Alpha Z     0.98166     0.98166     0.98166
  Ewald    2569.57175  2530.34251   746.27696    -0.00503   846.29156     0.00774
  Hartree  2563.72036  2946.71439  1849.90694    -0.00402   512.40949     0.00751
  E(xc)    -206.98092  -208.59713  -212.26721    -0.00000     1.78812    -0.00001
  Local   -5670.68312 -6034.65078 -3219.35372     0.00895 -1326.75394    -0.01541
  n-local   -70.15178   -69.68255   -65.57877    -0.00003    -2.00286     0.00002
  augment    -3.01124    -2.96689    -2.72189     0.00000    -0.11955     0.00000
  Kinetic   805.29469   825.95763   890.90805     0.00015   -31.63981     0.00025
  Fock        0.00000     0.00000     0.00000     0.00000     0.00000     0.00000
  vdW        -0.43775    -0.17841    -0.05427     0.00000    -0.06045    -0.00000
  -------------------------------------------------------------------------------------
  Total     -11.69636   -12.07958   -11.90227     0.00002    -0.08744     0.00011
  in kB      -1.17123    -1.20960    -1.19185     0.00000    -0.00876     0.00001
  external pressure =       -1.19 kB  Pullay stress =        0.00 kB


 VOLUME and BASIS-vectors are now :
 -----------------------------------------------------------------------------
  energy-cutoff  :      315.00
  volume of cell :    16000.00
      direct lattice vectors                 reciprocal lattice vectors
    40.000000000  0.000000000  0.000000000     0.025000000  0.000000000  0.000000000
     0.000000000 20.000000000  0.000000000     0.000000000  0.050000000  0.000000000
     0.000000000  0.000000000 20.000000000     0.000000000  0.000000000  0.050000000

  length of vectors
    40.000000000 20.000000000 20.000000000     0.025000000  0.050000000  0.050000000


 FORCES acting on ions
    electron-ion (+dipol)            ewald-force                    non-local-force                 convergence-correction
 -----------------------------------------------------------------------------------------------
   0.116E+01 -.106E-02 0.216E-02   -.127E+01 0.871E-03 -.220E-02   0.906E-01 -.210E-03 -.169E-04   -.671E-03 -.229E-05 0.125E-05
   0.143E+02 0.182E+03 0.665E+01   -.140E+02 -.183E+03 -.668E+01   -.515E+00 0.985E+00 0.285E-01   -.231E-03 -.293E-02 -.556E-03
   0.149E+03 0.165E+03 0.947E+01   -.149E+03 -.166E+03 -.957E+01   0.544E+00 0.821E+00 0.108E+00   -.792E-03 -.160E-02 -.295E-03
   0.230E+03 -.393E-03 0.138E-02   -.231E+03 0.388E-03 -.133E-02   0.111E+01 -.221E-04 -.341E-05   -.782E-03 -.598E-06 0.190E-07
   0.149E+03 -.165E+03 -.947E+01   -.149E+03 0.166E+03 0.957E+01   0.543E+00 -.821E+00 -.108E+00   -.792E-03 0.159E-02 0.292E-03
   0.143E+02 -.182E+03 -.665E+01   -.140E+02 0.183E+03 0.667E+01   -.514E+00 -.984E+00 -.285E-01   -.236E-03 0.292E-02 0.557E-03
   -.230E+03 0.578E-03 -.218E-02   0.231E+03 -.352E-03 0.231E-02   -.111E+01 0.171E-03 0.173E-03   0.803E-03 -.363E-07 0.380E-05
   -.149E+03 0.125E+03 0.108E+03   0.149E+03 -.125E+03 -.109E+03   -.545E+00 0.664E+00 0.496E+00   0.811E-03 -.134E-02 -.909E-03
   -.143E+02 0.135E+03 0.123E+03   0.141E+02 -.136E+03 -.123E+03   0.515E+00 0.725E+00 0.667E+00   0.218E-03 -.246E-02 -.165E-02
   -.115E+01 0.170E-02 -.246E-02   0.126E+01 -.158E-02 0.249E-02   -.910E-01 0.157E-03 0.836E-04   0.687E-03 0.108E-05 0.242E-05
   -.143E+02 -.135E+03 -.123E+03   0.141E+02 0.136E+03 0.123E+03   0.516E+00 -.725E+00 -.668E+00   0.216E-03 0.246E-02 0.166E-02
   -.149E+03 -.125E+03 -.108E+03   0.149E+03 0.125E+03 0.109E+03   -.545E+00 -.664E+00 -.496E+00   0.813E-03 0.135E-02 0.917E-03
   -.162E+02 0.839E+02 0.469E+00   0.190E+02 -.888E+02 -.605E+00   -.275E+01 0.487E+01 0.138E+00   0.753E-04 -.433E-03 -.230E-03
   0.509E+02 0.721E+02 0.364E+01   -.536E+02 -.770E+02 -.389E+01   0.277E+01 0.484E+01 0.248E+00   0.214E-03 0.530E-04 -.525E-04
   0.893E+02 -.968E-04 -.356E-03   -.949E+02 0.107E-03 0.403E-03   0.560E+01 -.427E-05 -.399E-04   0.962E-04 -.255E-06 -.605E-07
   0.509E+02 -.721E+02 -.365E+01   -.536E+02 0.770E+02 0.390E+01   0.277E+01 -.484E+01 -.248E+00   0.213E-03 -.532E-04 0.521E-04
   -.162E+02 -.839E+02 -.469E+00   0.190E+02 0.888E+02 0.605E+00   -.275E+01 -.487E+01 -.138E+00   0.763E-04 0.434E-03 0.230E-03
   -.893E+02 -.815E-03 0.421E-03   0.949E+02 0.869E-03 -.475E-03   -.560E+01 -.994E-04 0.341E-04   -.948E-04 -.113E-06 0.879E-06
   -.509E+02 0.542E+02 0.478E+02   0.536E+02 -.579E+02 -.510E+02   -.277E+01 0.364E+01 0.320E+01   -.213E-03 0.311E-05 0.862E-04
   0.162E+02 0.605E+02 0.583E+02   -.190E+02 -.641E+02 -.616E+02   0.275E+01 0.358E+01 0.330E+01   -.723E-04 -.466E-03 -.125E-03
   0.162E+02 -.605E+02 -.583E+02   -.190E+02 0.641E+02 0.616E+02   0.275E+01 -.358E+01 -.330E+01   -.708E-04 0.465E-03 0.124E-03
   -.509E+02 -.542E+02 -.478E+02   0.536E+02 0.579E+02 0.510E+02   -.277E+01 -.364E+01 -.320E+01   -.214E-03 -.463E-05 -.863E-04
 -----------------------------------------------------------------------------------------------
   0.860E-03 0.970E-04 0.297E-04   0.213E-13 -.355E-13 0.284E-13   -.907E-03 -.788E-04 -.471E-04   0.540E-04 -.168E-04 0.205E-04


 POSITION                                       TOTAL-FORCE (eV/Angst)
 -----------------------------------------------------------------------------------
     19.26173     10.00000      9.99997        -0.019266     -0.000404     -0.000053
     18.54156      8.79348      9.92470        -0.216671     -0.036476     -0.001046
     17.14094      8.79189      9.92476         0.055109      0.081310      0.004181
     16.43292     10.00000      9.99997         0.152475     -0.000028      0.000042
     17.14095     11.20811     10.07518         0.054541     -0.081044     -0.004145
     18.54155     11.20651     10.07523        -0.216138      0.037159      0.001172
     23.56627      9.99999      9.99999        -0.150507      0.000397      0.000299
     22.85826      9.08238      9.21063        -0.057359      0.061503      0.052094
     21.45764      9.08346      9.21180         0.218211     -0.026681     -0.026275
     20.73749      9.99999      9.99999         0.018067      0.000279      0.000120
     21.45763     10.91653     10.78818         0.219079      0.026392      0.025941
     22.85827     10.91761     10.78935        -0.057976     -0.061884     -0.052555
     19.08237      7.84082      9.89263         0.016409      0.006119      0.001689
     16.59776      7.84093      9.87592         0.010763      0.000406     -0.001008
     15.33800     10.00000      9.99997        -0.021040      0.000005      0.000007
     16.59775     12.15907     10.12407         0.010954     -0.000677      0.000879
     19.08237     12.15919     10.10732         0.016197     -0.006502     -0.001701
     24.66119     10.00000      9.99998         0.020964     -0.000046     -0.000019
     23.40145      8.36721      8.58199        -0.010152      0.000047      0.000230
     20.91682      8.37861      8.57010        -0.016718      0.006742      0.002416
     20.91681     11.62140     11.42984        -0.016914     -0.006604     -0.002229
     23.40145     11.63282     11.41794        -0.010028     -0.000014     -0.000040
 -----------------------------------------------------------------------------------
    total drift:                                0.000007      0.000001      0.000003


--------------------------------------------------------------------------------------------------------



  FREE ENERGIE OF THE ION-ELECTRON SYSTEM (eV)
  ---------------------------------------------------
  free  energy   TOTEN  =      -145.63827157 eV

  energy  without entropy=     -145.64986764  energy(sigma->0) =     -145.64213693

 d Force = 0.6169083E-03[-0.641E-02, 0.764E-02]  d Energy = 0.5128518E-03 0.104E-03
 d Force = 0.1295567E+02[ 0.129E+02, 0.130E+02]  d Ewald  = 0.1295560E+02 0.698E-04


--------------------------------------------------------------------------------------------------------


    POTLOK:  cpu time      3.3260: real time      3.3262


--------------------------------------------------------------------------------------------------------


 Conjugate gradient step on ions:
 trial-energy change:   -0.000513  1 .order   -0.000617   -0.007643    0.006410
  (g-gl).g = 0.838E-02      g.g   = 0.848E-02  gl.gl    = 0.143E-01
 g(Force)  = 0.848E-02   g(Stress)= 0.000E+00 ortho     = 0.103E-03
 gamma     =   0.58462
 trial     =   0.89499
 opt step  =   0.47689  (harmonic =   0.48678) maximal distance =0.00283445
 next E    =  -145.639779   (d E  =  -0.00202)


--------------------------------------------------------------------------------------------------------


    WAVPRE:  cpu time      0.8421: real time      0.8422
    FEWALD:  cpu time      0.0008: real time      0.0008
    ORTHCH:  cpu time      1.0477: real time      1.0477
     LOOP+:  cpu time    117.9993: real time    118.3514


--------------------------------------- Iteration      5(   1)  ---------------------------------------


    POTLOK:  cpu time      3.3380: real time      3.3382
    SETDIJ:  cpu time      0.0031: real time      0.0031
     EDDAV:  cpu time     11.0758: real time     11.0767
       DOS:  cpu time      0.0011: real time      0.0011
    CHARGE:  cpu time      1.1180: real time      1.1181
    MIXING:  cpu time      0.0809: real time      0.0809
    --------------------------------------------
      LOOP:  cpu time     15.6170: real time     15.6181

 eigenvalue-minimisations  :    96
 total energy-change (2. order) :-0.1275283E-02  (-0.1530409E-01)
 number of electron      58.0000016 magnetization 
 augmentation part        1.2603669 magnetization 

 Broyden mixing:
  rms(total) = 0.98327E-02    rms(broyden)= 0.98085E-02
  rms(prec ) = 0.10014E-01
  weight for this iteration     100.00

 Free energy of the ion-electron system (eV)
  ---------------------------------------------------
  alpha Z        PSCENC =         0.98165661
  Ewald energy   TEWEN  =      5852.23579053
  -Hartree energ DENC   =     -7365.38765333
  -exchange      EXHF   =         0.00000000
  -V(xc)+E(xc)   XCENC  =       190.81577319
  PAW double counting   =      4796.64314293    -4804.52812129
  entropy T*S    EENTRO =         0.01159599
  eigenvalues    EBANDS =      -703.84657523
  atomic energy  EATOM  =      1888.15124511
  Solvation  Ediel_sol  =         0.00000000
  ---------------------------------------------------
  free energy    TOTEN  =      -144.92314548 eV

  energy without entropy =     -144.93474147  energy(sigma->0) =     -144.92701081


--------------------------------------------------------------------------------------------------------




--------------------------------------- Iteration      5(   2)  ---------------------------------------


    POTLOK:  cpu time      3.3118: real time      3.3119
    SETDIJ:  cpu time      0.0032: real time      0.0032
     EDDAV:  cpu time     12.7322: real time     12.7331
       DOS:  cpu time      0.0010: real time      0.0010
    CHARGE:  cpu time      1.1198: real time      1.1198
    MIXING:  cpu time      0.0840: real time      0.0840
    --------------------------------------------
      LOOP:  cpu time     17.2521: real time     17.2531

 eigenvalue-minimisations  :   116
 total energy-change (2. order) : 0.3960352E-04  (-0.2663259E-03)
 number of electron      58.0000016 magnetization 
 augmentation part        1.2609787 magnetization 

 Broyden mixing:
  rms(total) = 0.67657E-02    rms(broyden)= 0.67610E-02
  rms(prec ) = 0.68837E-02
  weight for this iteration     100.00

 eigenvalues of (default mixing * dielectric matrix)
  average eigenvalue GAMMA=   1.2038
  1.2038

 Free energy of the ion-electron system (eV)
  ---------------------------------------------------
  alpha Z        PSCENC =         0.98165661
  Ewald energy   TEWEN  =      5852.23579053
  -Hartree energ DENC   =     -7365.74663076
  -exchange      EXHF   =         0.00000000
  -V(xc)+E(xc)   XCENC  =       190.82856876
  PAW double counting   =      4800.41452410    -4808.30344554
  entropy T*S    EENTRO =         0.01159601
  eigenvalues    EBANDS =      -703.49641070
  atomic energy  EATOM  =      1888.15124511
  Solvation  Ediel_sol  =         0.00000000
  ---------------------------------------------------
  free energy    TOTEN  =      -144.92310588 eV

  energy without entropy =     -144.93470189  energy(sigma->0) =     -144.92697121


--------------------------------------------------------------------------------------------------------




--------------------------------------- Iteration      5(   3)  ---------------------------------------


    POTLOK:  cpu time      3.3191: real time      3.3194
    SETDIJ:  cpu time      0.0037: real time      0.0037
     EDDAV:  cpu time     12.0659: real time     12.0669
       DOS:  cpu time      0.0006: real time      0.0006
    CHARGE:  cpu time      1.1164: real time      1.1165
    MIXING:  cpu time      0.0869: real time      0.0869
    --------------------------------------------
      LOOP:  cpu time     16.5927: real time     16.5940

 eigenvalue-minimisations  :   108
 total energy-change (2. order) : 0.5498697E-04  (-0.5001004E-04)
 number of electron      58.0000016 magnetization 
 augmentation part        1.2607743 magnetization 

 Broyden mixing:
  rms(total) = 0.35869E-02    rms(broyden)= 0.35847E-02
  rms(prec ) = 0.36054E-02
  weight for this iteration     100.00

 eigenvalues of (default mixing * dielectric matrix)
  average eigenvalue GAMMA=   1.3533
  1.3533  1.3533

 Free energy of the ion-electron system (eV)
  ---------------------------------------------------
  alpha Z        PSCENC =         0.98165661
  Ewald energy   TEWEN  =      5852.23579053
  -Hartree energ DENC   =     -7366.05713168
  -exchange      EXHF   =         0.00000000
  -V(xc)+E(xc)   XCENC  =       190.83824152
  PAW double counting   =      4806.34924010    -4814.24178770
  entropy T*S    EENTRO =         0.01159601
  eigenvalues    EBANDS =      -703.19190139
  atomic energy  EATOM  =      1888.15124511
  Solvation  Ediel_sol  =         0.00000000
  ---------------------------------------------------
  free energy    TOTEN  =      -144.92305089 eV

  energy without entropy =     -144.93464690  energy(sigma->0) =     -144.92691623


--------------------------------------------------------------------------------------------------------




--------------------------------------- Iteration      5(   4)  ---------------------------------------


    POTLOK:  cpu time      3.3361: real time      3.3362
    SETDIJ:  cpu time      0.0032: real time      0.0032
     EDDAV:  cpu time     12.9907: real time     12.9917
       DOS:  cpu time      0.0005: real time      0.0005
    CHARGE:  cpu time      1.1202: real time      1.1203
    MIXING:  cpu time      0.0882: real time      0.0882
    --------------------------------------------
      LOOP:  cpu time     17.5388: real time     17.5401

 eigenvalue-minimisations  :   120
 total energy-change (2. order) :-0.1640454E-04  (-0.6420271E-05)
 number of electron      58.0000016 magnetization 
 augmentation part        1.2607739 magnetization 

 Broyden mixing:
  rms(total) = 0.23498E-02    rms(broyden)= 0.23494E-02
  rms(prec ) = 0.23653E-02
  weight for this iteration     100.00

 eigenvalues of (default mixing * dielectric matrix)
  average eigenvalue GAMMA=   1.7139
  2.7361  1.2027  1.2027

 Free energy of the ion-electron system (eV)
  ---------------------------------------------------
  alpha Z        PSCENC =         0.98165661
  Ewald energy   TEWEN  =      5852.23579053
  -Hartree energ DENC   =     -7366.04620786
  -exchange      EXHF   =         0.00000000
  -V(xc)+E(xc)   XCENC  =       190.83784160
  PAW double counting   =      4810.12544897    -4818.01793393
  entropy T*S    EENTRO =         0.01159601
  eigenvalues    EBANDS =      -703.20250433
  atomic energy  EATOM  =      1888.15124511
  Solvation  Ediel_sol  =         0.00000000
  ---------------------------------------------------
  free energy    TOTEN  =      -144.92306730 eV

  energy without entropy =     -144.93466330  energy(sigma->0) =     -144.92693263


--------------------------------------------------------------------------------------------------------




--------------------------------------- Iteration      5(   5)  ---------------------------------------


    POTLOK:  cpu time      3.3598: real time      3.3601
    SETDIJ:  cpu time      0.0036: real time      0.0036
     EDDAV:  cpu time      9.0484: real time      9.0492
       DOS:  cpu time      0.0009: real time      0.0009
    CHARGE:  cpu time      1.1177: real time      1.1177
    MIXING:  cpu time      0.0891: real time      0.0891
    --------------------------------------------
      LOOP:  cpu time     13.6195: real time     13.6205

 eigenvalue-minimisations  :    72
 total energy-change (2. order) :-0.2005382E-04  (-0.1765301E-05)
 number of electron      58.0000016 magnetization 
 augmentation part        1.2607041 magnetization 

 Broyden mixing:
  rms(total) = 0.38994E-03    rms(broyden)= 0.38948E-03
  rms(prec ) = 0.40079E-03
  weight for this iteration     100.00

 eigenvalues of (default mixing * dielectric matrix)
  average eigenvalue GAMMA=   1.4476
  2.2809  1.1123  1.1123  1.2848

 Free energy of the ion-electron system (eV)
  ---------------------------------------------------
  alpha Z        PSCENC =         0.98165661
  Ewald energy   TEWEN  =      5852.23579053
  -Hartree energ DENC   =     -7366.12074041
  -exchange      EXHF   =         0.00000000
  -V(xc)+E(xc)   XCENC  =       190.84052218
  PAW double counting   =      4816.38416853    -4824.27751967
  entropy T*S    EENTRO =         0.01159601
  eigenvalues    EBANDS =      -703.12980625
  atomic energy  EATOM  =      1888.15124511
  Solvation  Ediel_sol  =         0.00000000
  ---------------------------------------------------
  free energy    TOTEN  =      -144.92308735 eV

  energy without entropy =     -144.93468336  energy(sigma->0) =     -144.92695269


--------------------------------------------------------------------------------------------------------




--------------------------------------- Iteration      5(   6)  ---------------------------------------


    POTLOK:  cpu time      3.3348: real time      3.3350
    SETDIJ:  cpu time      0.0033: real time      0.0033
     EDDAV:  cpu time      8.8962: real time      8.8970
       DOS:  cpu time      0.0003: real time      0.0003
    --------------------------------------------
      LOOP:  cpu time     12.2347: real time     12.2356

 eigenvalue-minimisations  :    72
 total energy-change (2. order) :-0.2000806E-05  (-0.4856967E-06)
 number of electron      58.0000016 magnetization 
 augmentation part        1.2607041 magnetization 

 Free energy of the ion-electron system (eV)
  ---------------------------------------------------
  alpha Z        PSCENC =         0.98165661
  Ewald energy   TEWEN  =      5852.23579053
  -Hartree energ DENC   =     -7366.11808263
  -exchange      EXHF   =         0.00000000
  -V(xc)+E(xc)   XCENC  =       190.84044997
  PAW double counting   =      4815.65229328    -4823.54559519
  entropy T*S    EENTRO =         0.01159601
  eigenvalues    EBANDS =      -703.13244305
  atomic energy  EATOM  =      1888.15124511
  Solvation  Ediel_sol  =         0.00000000
  ---------------------------------------------------
  free energy    TOTEN  =      -144.92308935 eV

  energy without entropy =     -144.93468536  energy(sigma->0) =     -144.92695469


--------------------------------------------------------------------------------------------------------




 average (electrostatic) potential at core
  the test charge radii are     0.6991  0.5201
  (the norm of the test charge is              1.0000)
       1 -59.1994       2 -58.9490       3 -58.9629       4 -58.9397       5 -58.9629
       6 -58.9490       7 -58.9393       8 -58.9624       9 -58.9485      10 -59.1990
      11 -58.9485      12 -58.9624      13 -41.9883      14 -41.9843      15 -41.9864
      16 -41.9843      17 -41.9883      18 -41.9865      19 -41.9839      20 -41.9879
      21 -41.9880      22 -41.9839



 E-fermi :  -5.4903     XC(G=0):  -0.2356     alpha+bet : -0.0924

 Fermi energy:        -5.4902704548

 k-point     1 :       0.0000    0.0000    0.0000
  band No.  band energies     occupation 
      1     -21.6140      2.00000
      2     -21.0174      2.00000
      3     -19.2719      2.00000
      4     -18.5379      2.00000
      5     -18.3321      2.00000
      6     -17.7766      2.00000
      7     -15.3718      2.00000
      8     -15.2192      2.00000
      9     -14.4731      2.00000
     10     -14.1460      2.00000
     11     -13.0366      2.00000
     12     -12.1277      2.00000
     13     -11.3883      2.00000
     14     -11.3229      2.00000
     15     -10.6093      2.00000
     16     -10.6034      2.00000
     17     -10.2293      2.00000
     18     -10.1527      2.00000
     19     -10.0265      2.00000
     20      -9.2677      2.00000
     21      -8.8146      2.00000
     22      -8.7179      2.00000
     23      -8.3765      2.00000
     24      -8.0440      2.00000
     25      -7.9334      2.00000
     26      -6.8862      2.00000
     27      -6.3180      2.00000
     28      -6.2927      2.00000
     29      -5.6586      2.00000
     30      -1.8064     -0.00000
     31      -1.2857     -0.00000
     32      -1.1590     -0.00000
     33      -0.5036     -0.00000
     34      -0.4545     -0.00000
     35      -0.2717     -0.00000
     36      -0.0954     -0.00000
     37       0.0245      0.00000
     38       0.1495      0.00000
     39       0.1529      0.00000
     40       0.1595      0.00000
     41       0.1991      0.00000
     42       0.2938      0.00000
     43       0.3287      0.00000
     44       0.3941      0.00000


--------------------------------------------------------------------------------------------------------


 soft charge-density along one line, spin component           1
         0         1         2         3         4         5         6         7         8         9
 total charge-density along one line

 pseudopotential strength for first ion, spin component:           1
 10.266  13.654   0.000   0.000   0.000  -0.000  -0.000  -0.000
 13.654  18.158   0.000   0.000   0.000  -0.000  -0.000  -0.000
  0.000   0.000  -4.408  -0.000   0.000   8.625   0.001  -0.000
  0.000   0.000  -0.000  -4.402  -0.000   0.001   8.618   0.000
  0.000   0.000   0.000  -0.000  -4.408  -0.000   0.000   8.625
 -0.000  -0.000   8.625   0.001  -0.000 -19.016  -0.000   0.000
 -0.000  -0.000   0.001   8.618   0.000  -0.000 -19.013  -0.000
 -0.000  -0.000  -0.000   0.000   8.625   0.000  -0.000 -19.018
 total augmentation occupancy for first ion, spin component:           1
  7.047  -2.993  -0.000   0.000  -0.105  -0.000   0.000  -0.022
 -2.993   1.350   0.000  -0.000   0.045   0.000  -0.000   0.010
 -0.000   0.000   1.927   0.043  -0.000   0.204   0.006  -0.000
  0.000  -0.000   0.043   1.258   0.000   0.006   0.104   0.000
 -0.105   0.045  -0.000   0.000   1.835  -0.000   0.000   0.193
 -0.000   0.000   0.204   0.006  -0.000   0.023   0.001  -0.000
  0.000  -0.000   0.006   0.104   0.000   0.001   0.009   0.000
 -0.022   0.010  -0.000   0.000   0.193  -0.000   0.000   0.022


------------------------ aborting loop because EDIFF is reached ----------------------------------------


    CHARGE:  cpu time      1.1085: real time      1.1086
    FORLOC:  cpu time      0.3365: real time      0.3365
    FORNL :  cpu time      1.7072: real time      1.7074
    STRESS:  cpu time      8.3131: real time      8.3135
    FORCOR:  cpu time      3.2307: real time      3.2308
    FORHAR:  cpu time      1.1076: real time      1.1076
    MIXING:  cpu time      0.0905: real time      0.0906
    OFIELD:  cpu time      0.0000: real time      0.0000

 ---------------------------------------------------------------------------------------------

         DFTD3 V3.0 Rev 1        
 Edisp (eV)   -0.71671

 E6    (eV) :    -0.4984
 E8    (eV) :    -0.2183
 % E8        : 30.46
    FORVDW:  cpu time      0.0041: real time      0.0041

  FORCE on cell =-STRESS in cart. coord.  units (eV):
  Direction    XX          YY          ZZ          XY          YZ          ZX
  --------------------------------------------------------------------------------------
  Alpha Z     0.98166     0.98166     0.98166
  Ewald    2574.75121  2531.07980   746.40383    -0.00507   846.57591     0.00816
  Hartree  2567.03497  2947.91113  1851.17008    -0.00447   512.38542     0.00826
  E(xc)    -207.08081  -208.70416  -212.37465    -0.00000     1.78823    -0.00001
  Local   -5678.69020 -6036.60094 -3220.96981     0.00954 -1326.91469    -0.01668
  n-local   -70.30196   -69.84871   -65.71286    -0.00002    -2.01835     0.00003
  augment    -3.02929    -2.98091    -2.73320    -0.00000    -0.12090     0.00000
  Kinetic   805.84876   826.82452   891.53663     0.00006   -31.52347     0.00029
  Fock        0.00000     0.00000     0.00000     0.00000     0.00000     0.00000
  vdW        -0.43572    -0.17628    -0.05368     0.00000    -0.05970    -0.00000
  -------------------------------------------------------------------------------------
  Total     -10.92138   -11.51388   -11.75200     0.00004     0.11245     0.00005
  in kB      -1.09362    -1.15296    -1.17680     0.00000     0.01126     0.00000
  external pressure =       -1.14 kB  Pullay stress =        0.00 kB


 VOLUME and BASIS-vectors are now :
 -----------------------------------------------------------------------------
  energy-cutoff  :      315.00
  volume of cell :    16000.00
      direct lattice vectors                 reciprocal lattice vectors
    40.000000000  0.000000000  0.000000000     0.025000000  0.000000000  0.000000000
     0.000000000 20.000000000  0.000000000     0.000000000  0.050000000  0.000000000
     0.000000000  0.000000000 20.000000000     0.000000000  0.000000000  0.050000000

  length of vectors
    40.000000000 20.000000000 20.000000000     0.025000000  0.050000000  0.050000000


 FORCES acting on ions
    electron-ion (+dipol)            ewald-force                    non-local-force                 convergence-correction
 -----------------------------------------------------------------------------------------------
   0.651E+00 -.134E-02 0.267E-02   -.782E+00 0.130E-02 -.268E-02   0.766E-01 -.675E-04 0.193E-04   0.652E-03 0.845E-06 -.541E-06
   0.139E+02 0.183E+03 0.668E+01   -.136E+02 -.184E+03 -.671E+01   -.445E+00 0.966E+00 0.262E-01   0.394E-03 0.131E-02 0.170E-03
   0.149E+03 0.165E+03 0.948E+01   -.150E+03 -.166E+03 -.959E+01   0.541E+00 0.788E+00 0.105E+00   0.416E-03 0.699E-03 0.888E-04
   0.231E+03 -.334E-03 0.133E-02   -.232E+03 0.350E-03 -.127E-02   0.106E+01 0.119E-04 -.227E-04   0.329E-03 0.164E-06 0.670E-07
   0.149E+03 -.165E+03 -.948E+01   -.150E+03 0.166E+03 0.958E+01   0.541E+00 -.788E+00 -.105E+00   0.416E-03 -.696E-03 -.886E-04
   0.139E+02 -.183E+03 -.667E+01   -.136E+02 0.184E+03 0.670E+01   -.445E+00 -.966E+00 -.262E-01   0.397E-03 -.131E-02 -.171E-03
   -.231E+03 0.110E-02 -.217E-02   0.232E+03 -.100E-02 0.219E-02   -.106E+01 0.568E-04 0.597E-04   -.330E-03 -.882E-06 -.788E-06
   -.149E+03 0.125E+03 0.109E+03   0.150E+03 -.126E+03 -.109E+03   -.541E+00 0.639E+00 0.475E+00   -.422E-03 0.551E-03 0.438E-03
   -.139E+02 0.135E+03 0.123E+03   0.136E+02 -.136E+03 -.123E+03   0.445E+00 0.711E+00 0.656E+00   -.388E-03 0.104E-02 0.808E-03
   -.648E+00 0.153E-02 -.269E-02   0.779E+00 -.148E-02 0.268E-02   -.766E-01 0.312E-04 0.515E-05   -.660E-03 -.661E-06 -.667E-06
   -.139E+02 -.135E+03 -.123E+03   0.136E+02 0.136E+03 0.123E+03   0.445E+00 -.711E+00 -.656E+00   -.387E-03 -.104E-02 -.810E-03
   -.149E+03 -.125E+03 -.109E+03   0.150E+03 0.126E+03 0.109E+03   -.541E+00 -.639E+00 -.475E+00   -.423E-03 -.554E-03 -.440E-03
   -.163E+02 0.840E+02 0.489E+00   0.190E+02 -.889E+02 -.626E+00   -.276E+01 0.486E+01 0.139E+00   -.757E-05 0.158E-03 0.588E-04
   0.509E+02 0.722E+02 0.365E+01   -.537E+02 -.771E+02 -.390E+01   0.277E+01 0.485E+01 0.249E+00   -.101E-03 -.964E-04 0.304E-05
   0.894E+02 -.745E-04 -.364E-03   -.950E+02 0.782E-04 0.414E-03   0.560E+01 -.636E-05 -.400E-04   -.539E-04 0.651E-07 0.431E-07
   0.509E+02 -.722E+02 -.366E+01   -.537E+02 0.771E+02 0.391E+01   0.277E+01 -.485E+01 -.249E+00   -.101E-03 0.963E-04 -.299E-05
   -.163E+02 -.840E+02 -.489E+00   0.190E+02 0.889E+02 0.627E+00   -.276E+01 -.486E+01 -.139E+00   -.807E-05 -.159E-03 -.590E-04
   -.894E+02 -.783E-03 0.628E-03   0.950E+02 0.847E-03 -.687E-03   -.560E+01 -.847E-04 0.657E-04   0.532E-04 -.727E-07 -.141E-06
   -.509E+02 0.543E+02 0.479E+02   0.537E+02 -.580E+02 -.511E+02   -.277E+01 0.365E+01 0.321E+01   0.102E-03 -.694E-04 -.708E-04
   0.163E+02 0.605E+02 0.583E+02   -.190E+02 -.641E+02 -.616E+02   0.276E+01 0.358E+01 0.330E+01   0.696E-05 0.152E-03 0.666E-04
   0.163E+02 -.605E+02 -.583E+02   -.190E+02 0.641E+02 0.616E+02   0.276E+01 -.358E+01 -.329E+01   0.632E-05 -.151E-03 -.662E-04
   -.509E+02 -.543E+02 -.478E+02   0.537E+02 0.580E+02 0.511E+02   -.277E+01 -.365E+01 -.320E+01   0.102E-03 0.701E-04 0.712E-04
 -----------------------------------------------------------------------------------------------
   0.619E-03 0.316E-03 -.811E-04   0.639E-13 0.249E-12 -.497E-13   -.609E-03 -.318E-03 0.903E-04   -.817E-05 0.349E-05 -.623E-05


 POSITION                                       TOTAL-FORCE (eV/Angst)
 -----------------------------------------------------------------------------------
     19.26188     10.00000      9.99996        -0.045779     -0.000105      0.000008
     18.53953      8.79497      9.92487        -0.074324     -0.063975     -0.004011
     17.14164      8.79381      9.92499         0.010430     -0.005409     -0.002127
     16.43540     10.00000      9.99997         0.020874      0.000028      0.000036
     17.14164     11.20620     10.07495         0.010294      0.005454      0.002175
     18.53953     11.20503     10.07506        -0.074218      0.064147      0.004101
     23.56381      9.99999      9.99999        -0.020315      0.000159      0.000078
     22.85756      9.08385      9.21184        -0.011289     -0.004397     -0.003667
     21.45967      9.08457      9.21276         0.074968     -0.047384     -0.043160
     20.73732      9.99999      9.99999         0.045426      0.000079     -0.000010
     21.45967     10.91541     10.78722         0.075239      0.047361      0.043008
     22.85756     10.91613     10.78814        -0.011404      0.004373      0.003525
     19.08123      7.84304      9.89268         0.013483     -0.008828      0.000975
     16.59887      7.84303      9.87604         0.002048     -0.009163     -0.001164
     15.34048     10.00000      9.99997        -0.023889     -0.000003      0.000010
     16.59887     12.15697     10.12396         0.002114      0.009087      0.001031
     19.08123     12.15697     10.10727         0.013439      0.008699     -0.000977
     24.65871     10.00000      9.99998         0.024162     -0.000021      0.000006
     23.40033      8.36876      8.58337        -0.001643     -0.006674     -0.005922
     20.91797      8.38020      8.57161        -0.013954     -0.004584     -0.007273
     20.91797     11.61981     11.42833        -0.014010      0.004586      0.007352
     23.40033     11.63127     11.41656        -0.001651      0.006568      0.006005
 -----------------------------------------------------------------------------------
    total drift:                                0.000001      0.000001      0.000003


--------------------------------------------------------------------------------------------------------



  FREE ENERGIE OF THE ION-ELECTRON SYSTEM (eV)
  ---------------------------------------------------
  free  energy   TOTEN  =      -145.63979631 eV

  energy  without entropy=     -145.65139232  energy(sigma->0) =     -145.64366165

 d Force = 0.1484651E-02[-0.250E-04, 0.299E-02]  d Energy = 0.1524744E-02-0.401E-04
 d Force =-0.6043435E+01[-0.605E+01,-0.604E+01]  d Ewald  =-0.6043428E+01-0.713E-05


--------------------------------------------------------------------------------------------------------


    POTLOK:  cpu time      3.2902: real time      3.2903


--------------------------------------------------------------------------------------------------------




--------------------------------------------------------------------------------------------------------


    WAVPRE:  cpu time      0.8134: real time      0.8134
    FEWALD:  cpu time      0.0006: real time      0.0006
    ORTHCH:  cpu time      1.0162: real time      1.0163
     LOOP+:  cpu time    113.8778: real time    113.8856


--------------------------------------- Iteration      6(   1)  ---------------------------------------


    POTLOK:  cpu time      3.2816: real time      3.2818
    SETDIJ:  cpu time      0.0034: real time      0.0034
     EDDAV:  cpu time     10.8380: real time     10.8388
       DOS:  cpu time      0.0008: real time      0.0008
    CHARGE:  cpu time      1.0989: real time      1.0990
    MIXING:  cpu time      0.0802: real time      0.0802
    --------------------------------------------
      LOOP:  cpu time     15.3030: real time     15.3040

 eigenvalue-minimisations  :    96
 total energy-change (2. order) :-0.4275783E-03  (-0.1705599E-01)
 number of electron      58.0000017 magnetization 
 augmentation part        1.2592192 magnetization 

 Broyden mixing:
  rms(total) = 0.10399E-01    rms(broyden)= 0.10363E-01
  rms(prec ) = 0.10515E-01
  weight for this iteration     100.00

 Free energy of the ion-electron system (eV)
  ---------------------------------------------------
  alpha Z        PSCENC =         0.98165661
  Ewald energy   TEWEN  =      5847.21953635
  -Hartree energ DENC   =     -7361.71937452
  -exchange      EXHF   =         0.00000000
  -V(xc)+E(xc)   XCENC  =       190.79086945
  PAW double counting   =      4815.88869481    -4823.78194220
  entropy T*S    EENTRO =         0.01159586
  eigenvalues    EBANDS =      -702.46579640
  atomic energy  EATOM  =      1888.15124511
  Solvation  Ediel_sol  =         0.00000000
  ---------------------------------------------------
  free energy    TOTEN  =      -144.92351493 eV

  energy without entropy =     -144.93511079  energy(sigma->0) =     -144.92738021


--------------------------------------------------------------------------------------------------------




--------------------------------------- Iteration      6(   2)  ---------------------------------------


    POTLOK:  cpu time      3.3023: real time      3.3025
    SETDIJ:  cpu time      0.0031: real time      0.0031
     EDDAV:  cpu time     11.2058: real time     11.2068
       DOS:  cpu time      0.0010: real time      0.0010
    CHARGE:  cpu time      1.1134: real time      1.1134
    MIXING:  cpu time      0.0835: real time      0.0835
    --------------------------------------------
      LOOP:  cpu time     15.7092: real time     15.7105

 eigenvalue-minimisations  :   100
 total energy-change (2. order) :-0.1989281E-04  (-0.2889320E-03)
 number of electron      58.0000017 magnetization 
 augmentation part        1.2589121 magnetization 

 Broyden mixing:
  rms(total) = 0.65295E-02    rms(broyden)= 0.65226E-02
  rms(prec ) = 0.66357E-02
  weight for this iteration     100.00

 eigenvalues of (default mixing * dielectric matrix)
  average eigenvalue GAMMA=   1.2730
  1.2730

 Free energy of the ion-electron system (eV)
  ---------------------------------------------------
  alpha Z        PSCENC =         0.98165661
  Ewald energy   TEWEN  =      5847.21953635
  -Hartree energ DENC   =     -7361.50466948
  -exchange      EXHF   =         0.00000000
  -V(xc)+E(xc)   XCENC  =       190.78413950
  PAW double counting   =      4812.93793778    -4820.82886027
  entropy T*S    EENTRO =         0.01159588
  eigenvalues    EBANDS =      -702.67611629
  atomic energy  EATOM  =      1888.15124511
  Solvation  Ediel_sol  =         0.00000000
  ---------------------------------------------------
  free energy    TOTEN  =      -144.92353482 eV

  energy without entropy =     -144.93513070  energy(sigma->0) =     -144.92740011


--------------------------------------------------------------------------------------------------------




--------------------------------------- Iteration      6(   3)  ---------------------------------------


    POTLOK:  cpu time      3.3024: real time      3.3025
    SETDIJ:  cpu time      0.0034: real time      0.0034
     EDDAV:  cpu time     12.2024: real time     12.2032
       DOS:  cpu time      0.0007: real time      0.0007
    CHARGE:  cpu time      1.1079: real time      1.1080
    MIXING:  cpu time      0.0851: real time      0.0851
    --------------------------------------------
      LOOP:  cpu time     16.7019: real time     16.7030

 eigenvalue-minimisations  :   112
 total energy-change (2. order) : 0.3885790E-04  (-0.4231086E-04)
 number of electron      58.0000017 magnetization 
 augmentation part        1.2590079 magnetization 

 Broyden mixing:
  rms(total) = 0.28033E-02    rms(broyden)= 0.27984E-02
  rms(prec ) = 0.28299E-02
  weight for this iteration     100.00

 eigenvalues of (default mixing * dielectric matrix)
  average eigenvalue GAMMA=   1.3353
  0.9899  1.6806

 Free energy of the ion-electron system (eV)
  ---------------------------------------------------
  alpha Z        PSCENC =         0.98165661
  Ewald energy   TEWEN  =      5847.21953635
  -Hartree energ DENC   =     -7361.30760685
  -exchange      EXHF   =         0.00000000
  -V(xc)+E(xc)   XCENC  =       190.77823854
  PAW double counting   =      4809.62530098    -4817.51388062
  entropy T*S    EENTRO =         0.01159589
  eigenvalues    EBANDS =      -702.86958198
  atomic energy  EATOM  =      1888.15124511
  Solvation  Ediel_sol  =         0.00000000
  ---------------------------------------------------
  free energy    TOTEN  =      -144.92349596 eV

  energy without entropy =     -144.93509185  energy(sigma->0) =     -144.92736126


--------------------------------------------------------------------------------------------------------




--------------------------------------- Iteration      6(   4)  ---------------------------------------


    POTLOK:  cpu time      3.3109: real time      3.3111
    SETDIJ:  cpu time      0.0033: real time      0.0033
     EDDAV:  cpu time     10.8652: real time     10.8668
       DOS:  cpu time      0.0007: real time      0.0007
    CHARGE:  cpu time      1.1097: real time      1.1098
    MIXING:  cpu time      0.0867: real time      0.0867
    --------------------------------------------
      LOOP:  cpu time     15.3766: real time     15.3784

 eigenvalue-minimisations  :    96
 total energy-change (2. order) :-0.1837590E-04  (-0.6897202E-05)
 number of electron      58.0000017 magnetization 
 augmentation part        1.2590717 magnetization 

 Broyden mixing:
  rms(total) = 0.13634E-02    rms(broyden)= 0.13629E-02
  rms(prec ) = 0.13730E-02
  weight for this iteration     100.00

 eigenvalues of (default mixing * dielectric matrix)
  average eigenvalue GAMMA=   1.5392
  2.4937  1.0619  1.0619

 Free energy of the ion-electron system (eV)
  ---------------------------------------------------
  alpha Z        PSCENC =         0.98165661
  Ewald energy   TEWEN  =      5847.21953635
  -Hartree energ DENC   =     -7361.26789987
  -exchange      EXHF   =         0.00000000
  -V(xc)+E(xc)   XCENC  =       190.77641891
  PAW double counting   =      4807.34509918    -4815.23309566
  entropy T*S    EENTRO =         0.01159589
  eigenvalues    EBANDS =      -702.90807085
  atomic energy  EATOM  =      1888.15124511
  Solvation  Ediel_sol  =         0.00000000
  ---------------------------------------------------
  free energy    TOTEN  =      -144.92351434 eV

  energy without entropy =     -144.93511023  energy(sigma->0) =     -144.92737963


--------------------------------------------------------------------------------------------------------




--------------------------------------- Iteration      6(   5)  ---------------------------------------


    POTLOK:  cpu time      3.3212: real time      3.3213
    SETDIJ:  cpu time      0.0031: real time      0.0031
     EDDAV:  cpu time      8.8802: real time      8.8807
       DOS:  cpu time      0.0002: real time      0.0002
    CHARGE:  cpu time      1.1074: real time      1.1075
    MIXING:  cpu time      0.0891: real time      0.0891
    --------------------------------------------
      LOOP:  cpu time     13.4012: real time     13.4019

 eigenvalue-minimisations  :    72
 total energy-change (2. order) :-0.1250360E-04  (-0.5708326E-06)
 number of electron      58.0000017 magnetization 
 augmentation part        1.2590969 magnetization 

 Broyden mixing:
  rms(total) = 0.42203E-03    rms(broyden)= 0.42187E-03
  rms(prec ) = 0.43028E-03
  weight for this iteration     100.00

 eigenvalues of (default mixing * dielectric matrix)
  average eigenvalue GAMMA=   1.5069
  2.3701  1.0843  1.0843  1.4889

 Free energy of the ion-electron system (eV)
  ---------------------------------------------------
  alpha Z        PSCENC =         0.98165661
  Ewald energy   TEWEN  =      5847.21953635
  -Hartree energ DENC   =     -7361.24531551
  -exchange      EXHF   =         0.00000000
  -V(xc)+E(xc)   XCENC  =       190.77540148
  PAW double counting   =      4805.29895490    -4813.18675030
  entropy T*S    EENTRO =         0.01159589
  eigenvalues    EBANDS =      -702.92985137
  atomic energy  EATOM  =      1888.15124511
  Solvation  Ediel_sol  =         0.00000000
  ---------------------------------------------------
  free energy    TOTEN  =      -144.92352684 eV

  energy without entropy =     -144.93512273  energy(sigma->0) =     -144.92739214


--------------------------------------------------------------------------------------------------------




--------------------------------------- Iteration      6(   6)  ---------------------------------------


    POTLOK:  cpu time      3.3324: real time      3.3328
    SETDIJ:  cpu time      0.0034: real time      0.0034
     EDDAV:  cpu time      8.5144: real time      8.5519
       DOS:  cpu time      0.0006: real time      0.0006
    --------------------------------------------
      LOOP:  cpu time     11.8508: real time     11.8887

 eigenvalue-minimisations  :    68
 total energy-change (2. order) :-0.8065376E-06  (-0.2623313E-06)
 number of electron      58.0000017 magnetization 
 augmentation part        1.2590969 magnetization 

 Free energy of the ion-electron system (eV)
  ---------------------------------------------------
  alpha Z        PSCENC =         0.98165661
  Ewald energy   TEWEN  =      5847.21953635
  -Hartree energ DENC   =     -7361.26552300
  -exchange      EXHF   =         0.00000000
  -V(xc)+E(xc)   XCENC  =       190.77605094
  PAW double counting   =      4805.11679655    -4813.00488676
  entropy T*S    EENTRO =         0.01159589
  eigenvalues    EBANDS =      -702.90999934
  atomic energy  EATOM  =      1888.15124511
  Solvation  Ediel_sol  =         0.00000000
  ---------------------------------------------------
  free energy    TOTEN  =      -144.92352765 eV

  energy without entropy =     -144.93512353  energy(sigma->0) =     -144.92739294


--------------------------------------------------------------------------------------------------------




 average (electrostatic) potential at core
  the test charge radii are     0.6991  0.5201
  (the norm of the test charge is              1.0000)
       1 -59.2042       2 -58.9527       3 -58.9666       4 -58.9455       5 -58.9666
       6 -58.9527       7 -58.9450       8 -58.9660       9 -58.9522      10 -59.2036
      11 -58.9522      12 -58.9660      13 -41.9956      14 -41.9803      15 -41.9737
      16 -41.9803      17 -41.9956      18 -41.9739      19 -41.9797      20 -41.9950
      21 -41.9950      22 -41.9797



 E-fermi :  -5.4771     XC(G=0):  -0.2364     alpha+bet : -0.0924

 Fermi energy:        -5.4771448207

 k-point     1 :       0.0000    0.0000    0.0000
  band No.  band energies     occupation 
      1     -21.5966      2.00000
      2     -21.0111      2.00000
      3     -19.2484      2.00000
      4     -18.5479      2.00000
      5     -18.3453      2.00000
      6     -17.7564      2.00000
      7     -15.3695      2.00000
      8     -15.2066      2.00000
      9     -14.4658      2.00000
     10     -14.1455      2.00000
     11     -13.0275      2.00000
     12     -12.1235      2.00000
     13     -11.3872      2.00000
     14     -11.3158      2.00000
     15     -10.6022      2.00000
     16     -10.5987      2.00000
     17     -10.2440      2.00000
     18     -10.1297      2.00000
     19     -10.0398      2.00000
     20      -9.2614      2.00000
     21      -8.8120      2.00000
     22      -8.7256      2.00000
     23      -8.3709      2.00000
     24      -8.0446      2.00000
     25      -7.9278      2.00000
     26      -6.8706      2.00000
     27      -6.3300      2.00000
     28      -6.3050      2.00000
     29      -5.6455      2.00000
     30      -1.8183     -0.00000
     31      -1.2792     -0.00000
     32      -1.1528     -0.00000
     33      -0.5012     -0.00000
     34      -0.4683     -0.00000
     35      -0.2674     -0.00000
     36      -0.0949     -0.00000
     37       0.0251      0.00000
     38       0.1477      0.00000
     39       0.1585      0.00000
     40       0.1606      0.00000
     41       0.1962      0.00000
     42       0.2981      0.00000
     43       0.3253      0.00000
     44       0.3879      0.00000


--------------------------------------------------------------------------------------------------------


 soft charge-density along one line, spin component           1
         0         1         2         3         4         5         6         7         8         9
 total charge-density along one line

 pseudopotential strength for first ion, spin component:           1
 10.266  13.653  -0.000  -0.000   0.000   0.000   0.000  -0.000
 13.653  18.158  -0.000  -0.000   0.000   0.000   0.000  -0.000
 -0.000  -0.000  -4.408  -0.000  -0.000   8.626   0.001   0.000
 -0.000  -0.000  -0.000  -4.403  -0.000   0.001   8.620   0.000
  0.000   0.000  -0.000  -0.000  -4.408   0.000   0.000   8.626
  0.000   0.000   8.626   0.001   0.000 -19.019  -0.000  -0.000
  0.000   0.000   0.001   8.620   0.000  -0.000 -19.017  -0.000
 -0.000  -0.000   0.000   0.000   8.626  -0.000  -0.000 -19.021
 total augmentation occupancy for first ion, spin component:           1
  6.997  -2.964  -0.000   0.000  -0.103  -0.000   0.000  -0.021
 -2.964   1.334   0.000  -0.000   0.044   0.000  -0.000   0.010
 -0.000   0.000   1.919   0.043   0.000   0.202   0.006   0.000
  0.000  -0.000   0.043   1.255   0.000   0.006   0.104   0.000
 -0.103   0.044   0.000   0.000   1.827   0.000   0.000   0.192
 -0.000   0.000   0.202   0.006   0.000   0.023   0.001   0.000
  0.000  -0.000   0.006   0.104   0.000   0.001   0.009   0.000
 -0.021   0.010   0.000   0.000   0.192   0.000   0.000   0.021


------------------------ aborting loop because EDIFF is reached ----------------------------------------


    CHARGE:  cpu time      1.0931: real time      1.1051
    FORLOC:  cpu time      0.3326: real time      0.3359
    FORNL :  cpu time      1.7040: real time      1.7228
    STRESS:  cpu time      8.2108: real time      8.2835
    FORCOR:  cpu time      3.2106: real time      3.2108
    FORHAR:  cpu time      1.1030: real time      1.1031
    MIXING:  cpu time      0.0897: real time      0.0897
    OFIELD:  cpu time      0.0000: real time      0.0000

 ---------------------------------------------------------------------------------------------

         DFTD3 V3.0 Rev 1        
 Edisp (eV)   -0.71631

 E6    (eV) :    -0.4981
 E8    (eV) :    -0.2182
 % E8        : 30.46
    FORVDW:  cpu time      0.0042: real time      0.0042

  FORCE on cell =-STRESS in cart. coord.  units (eV):
  Direction    XX          YY          ZZ          XY          YZ          ZX
  --------------------------------------------------------------------------------------
  Alpha Z     0.98166     0.98166     0.98166
  Ewald    2571.16702  2529.90786   746.14390    -0.00330   846.15742     0.00671
  Hartree  2563.41553  2947.49027  1850.37241    -0.00372   512.57658     0.00711
  E(xc)    -207.01241  -208.64000  -212.30762     0.00000     1.78692    -0.00001
  Local   -5671.33681 -6035.34413 -3219.88012     0.00726 -1326.86742    -0.01412
  n-local   -70.21745   -69.72137   -65.62329    -0.00001    -2.00004     0.00003
  augment    -3.02248    -2.97084    -2.72641    -0.00000    -0.11924     0.00000
  Kinetic   805.43596   826.32106   891.17174    -0.00011   -31.59026     0.00023
  Fock        0.00000     0.00000     0.00000     0.00000     0.00000     0.00000
  vdW        -0.43736    -0.17855    -0.05434     0.00000    -0.06049    -0.00000
  -------------------------------------------------------------------------------------
  Total     -11.02636   -12.15403   -11.92207     0.00012    -0.11653    -0.00005
  in kB      -1.10414    -1.21706    -1.19383     0.00001    -0.01167    -0.00000
  external pressure =       -1.17 kB  Pullay stress =        0.00 kB


 VOLUME and BASIS-vectors are now :
 -----------------------------------------------------------------------------
  energy-cutoff  :      315.00
  volume of cell :    16000.00
      direct lattice vectors                 reciprocal lattice vectors
    40.000000000  0.000000000  0.000000000     0.025000000  0.000000000  0.000000000
     0.000000000 20.000000000  0.000000000     0.000000000  0.050000000  0.000000000
     0.000000000  0.000000000 20.000000000     0.000000000  0.000000000  0.050000000

  length of vectors
    40.000000000 20.000000000 20.000000000     0.025000000  0.050000000  0.050000000


 FORCES acting on ions
    electron-ion (+dipol)            ewald-force                    non-local-force                 convergence-correction
 -----------------------------------------------------------------------------------------------
   0.490E+00 -.150E-02 0.224E-02   -.612E+00 0.165E-02 -.222E-02   0.117E+00 0.711E-04 0.340E-04   0.187E-03 -.624E-06 -.249E-06
   0.133E+02 0.182E+03 0.666E+01   -.128E+02 -.183E+03 -.669E+01   -.392E+00 0.104E+01 0.289E-01   -.125E-03 -.138E-02 -.275E-03
   0.150E+03 0.165E+03 0.948E+01   -.150E+03 -.166E+03 -.959E+01   0.508E+00 0.784E+00 0.106E+00   0.438E-03 -.121E-02 -.170E-03
   0.230E+03 0.963E-04 0.118E-02   -.231E+03 -.156E-03 -.113E-02   0.106E+01 -.108E-04 -.138E-04   -.301E-03 0.554E-06 -.571E-06
   0.150E+03 -.165E+03 -.948E+01   -.150E+03 0.166E+03 0.959E+01   0.509E+00 -.784E+00 -.106E+00   0.436E-03 0.121E-02 0.169E-03
   0.133E+02 -.182E+03 -.666E+01   -.128E+02 0.183E+03 0.668E+01   -.392E+00 -.104E+01 -.290E-01   -.124E-03 0.138E-02 0.274E-03
   -.230E+03 0.145E-02 -.142E-02   0.231E+03 -.151E-02 0.131E-02   -.106E+01 -.813E-04 -.603E-04   0.306E-03 0.151E-06 0.893E-06
   -.150E+03 0.125E+03 0.109E+03   0.150E+03 -.125E+03 -.109E+03   -.508E+00 0.636E+00 0.472E+00   -.457E-03 -.979E-03 -.732E-03
   -.133E+02 0.135E+03 0.123E+03   0.128E+02 -.136E+03 -.123E+03   0.391E+00 0.768E+00 0.709E+00   0.120E-03 -.117E-02 -.776E-03
   -.483E+00 0.890E-03 -.244E-02   0.605E+00 -.869E-03 0.243E-02   -.116E+00 -.241E-04 -.430E-04   -.203E-03 -.467E-06 -.759E-06
   -.133E+02 -.135E+03 -.123E+03   0.128E+02 0.136E+03 0.123E+03   0.391E+00 -.768E+00 -.709E+00   0.122E-03 0.117E-02 0.774E-03
   -.150E+03 -.125E+03 -.109E+03   0.150E+03 0.125E+03 0.109E+03   -.508E+00 -.636E+00 -.472E+00   -.457E-03 0.976E-03 0.731E-03
   -.164E+02 0.838E+02 0.465E+00   0.192E+02 -.887E+02 -.601E+00   -.278E+01 0.486E+01 0.137E+00   0.316E-04 -.285E-03 -.112E-03
   0.509E+02 0.722E+02 0.365E+01   -.537E+02 -.770E+02 -.390E+01   0.277E+01 0.484E+01 0.248E+00   0.106E-03 -.210E-03 -.371E-04
   0.893E+02 -.396E-05 -.315E-03   -.948E+02 0.753E-06 0.357E-03   0.558E+01 -.147E-06 -.347E-04   -.120E-03 0.899E-07 -.169E-06
   0.509E+02 -.722E+02 -.365E+01   -.537E+02 0.770E+02 0.390E+01   0.277E+01 -.484E+01 -.248E+00   0.106E-03 0.210E-03 0.368E-04
   -.164E+02 -.838E+02 -.466E+00   0.192E+02 0.887E+02 0.602E+00   -.278E+01 -.486E+01 -.137E+00   0.313E-04 0.285E-03 0.111E-03
   -.893E+02 -.493E-03 0.610E-03   0.948E+02 0.540E-03 -.659E-03   -.558E+01 -.452E-04 0.723E-04   0.124E-03 -.100E-06 0.204E-06
   -.509E+02 0.543E+02 0.478E+02   0.537E+02 -.579E+02 -.510E+02   -.277E+01 0.364E+01 0.320E+01   -.107E-03 -.176E-03 -.117E-03
   0.164E+02 0.604E+02 0.582E+02   -.192E+02 -.640E+02 -.615E+02   0.278E+01 0.357E+01 0.329E+01   -.342E-04 -.282E-03 -.115E-03
   0.164E+02 -.604E+02 -.582E+02   -.192E+02 0.640E+02 0.615E+02   0.278E+01 -.357E+01 -.329E+01   -.343E-04 0.282E-03 0.115E-03
   -.509E+02 -.543E+02 -.478E+02   0.537E+02 0.579E+02 0.510E+02   -.277E+01 -.364E+01 -.320E+01   -.106E-03 0.176E-03 0.117E-03
 -----------------------------------------------------------------------------------------------
   0.718E-03 0.382E-03 -.144E-03   -.497E-13 -.497E-13 0.711E-14   -.625E-03 -.382E-03 0.154E-03   -.607E-04 -.124E-05 -.570E-05


 POSITION                                       TOTAL-FORCE (eV/Angst)
 -----------------------------------------------------------------------------------
     19.26001     10.00000      9.99997         0.003397      0.000221      0.000049
     18.53765      8.79171      9.92462         0.058276      0.085858      0.005164
     17.14169      8.79262      9.92479        -0.095901      0.005543      0.000015
     16.43496     10.00000      9.99997         0.020336     -0.000070      0.000029
     17.14169     11.20738     10.07515        -0.095659     -0.005476      0.000020
     18.53765     11.20829     10.07531         0.058133     -0.086211     -0.005117
     23.56426      9.99999      9.99999        -0.021417     -0.000141     -0.000171
     22.85748      9.08293      9.21108         0.098058      0.005214      0.003218
     21.46158      9.08215      9.21058        -0.060434      0.066043      0.055314
     20.73918      9.99999      9.99999        -0.002658     -0.000003     -0.000050
     21.46158     10.91783     10.78939        -0.060791     -0.065882     -0.055267
     22.85747     10.91705     10.78889         0.098217     -0.004972     -0.003119
     19.08234      7.84157      9.89269         0.002738     -0.013241      0.000654
     16.59839      7.84161      9.87593        -0.000120      0.005860     -0.000747
     15.33829     10.00000      9.99997         0.034953     -0.000003      0.000007
     16.59839     12.15839     10.12406        -0.000148     -0.005816      0.000641
     19.08234     12.15844     10.10725         0.002813      0.013327     -0.000647
     24.66091     10.00000      9.99998        -0.034640      0.000002      0.000023
     23.40084      8.36771      8.58244         0.000294      0.004380      0.003935
     20.91684      8.37922      8.57056        -0.002901     -0.007851     -0.010422
     20.91684     11.62079     11.42938        -0.002799      0.007702      0.010348
     23.40083     11.63231     11.41749         0.000251     -0.004485     -0.003878
 -----------------------------------------------------------------------------------
    total drift:                                0.000033     -0.000001      0.000004


--------------------------------------------------------------------------------------------------------



  FREE ENERGIE OF THE ION-ELECTRON SYSTEM (eV)
  ---------------------------------------------------
  free  energy   TOTEN  =      -145.63983904 eV

  energy  without entropy=     -145.65143493  energy(sigma->0) =     -145.64370434

 d Force = 0.4712221E-04[-0.176E-02, 0.185E-02]  d Energy = 0.4272752E-04 0.439E-05
 d Force = 0.5016261E+01[ 0.501E+01, 0.502E+01]  d Ewald  = 0.5016254E+01 0.710E-05


--------------------------------------------------------------------------------------------------------


    POTLOK:  cpu time      3.2821: real time      3.2824


--------------------------------------------------------------------------------------------------------


 Conjugate gradient step on ions:
 trial-energy change:   -0.000043  1 .order   -0.000047   -0.001849    0.001755
  (g-gl).g = 0.222E-02      g.g   = 0.226E-02  gl.gl    = 0.848E-02
 g(Force)  = 0.226E-02   g(Stress)= 0.000E+00 ortho     = 0.598E-04
 gamma     =   0.26125
 trial     =   0.81137
 opt step  =   0.41629  (harmonic =   0.41629) maximal distance =0.00167357
 next E    =  -145.640271   (d E  =  -0.00047)


--------------------------------------------------------------------------------------------------------


    WAVPRE:  cpu time      0.8105: real time      0.8105
    FEWALD:  cpu time      0.0018: real time      0.0018
    ORTHCH:  cpu time      1.0202: real time      1.0202
     LOOP+:  cpu time    109.2095: real time    109.3606


--------------------------------------- Iteration      7(   1)  ---------------------------------------


    POTLOK:  cpu time      3.2954: real time      3.2956
    SETDIJ:  cpu time      0.0031: real time      0.0031
     EDDAV:  cpu time     10.8337: real time     10.8346
       DOS:  cpu time      0.0013: real time      0.0013
    CHARGE:  cpu time      1.1039: real time      1.1040
    MIXING:  cpu time      0.0801: real time      0.0801
    --------------------------------------------
      LOOP:  cpu time     15.3176: real time     15.3188

 eigenvalue-minimisations  :    96
 total energy-change (2. order) :-0.2242539E-03  (-0.4031481E-02)
 number of electron      58.0000017 magnetization 
 augmentation part        1.2597898 magnetization 

 Broyden mixing:
  rms(total) = 0.49967E-02    rms(broyden)= 0.49788E-02
  rms(prec ) = 0.50504E-02
  weight for this iteration     100.00

 Free energy of the ion-electron system (eV)
  ---------------------------------------------------
  alpha Z        PSCENC =         0.98165661
  Ewald energy   TEWEN  =      5849.66018941
  -Hartree energ DENC   =     -7363.41293905
  -exchange      EXHF   =         0.00000000
  -V(xc)+E(xc)   XCENC  =       190.80039647
  PAW double counting   =      4804.89461356    -4812.78282686
  entropy T*S    EENTRO =         0.01159596
  eigenvalues    EBANDS =      -703.22768229
  atomic energy  EATOM  =      1888.15124511
  Solvation  Ediel_sol  =         0.00000000
  ---------------------------------------------------
  free energy    TOTEN  =      -144.92375110 eV

  energy without entropy =     -144.93534705  energy(sigma->0) =     -144.92761641


--------------------------------------------------------------------------------------------------------




--------------------------------------- Iteration      7(   2)  ---------------------------------------


    POTLOK:  cpu time      3.3125: real time      3.3127
    SETDIJ:  cpu time      0.0031: real time      0.0031
     EDDAV:  cpu time     11.2026: real time     11.2036
       DOS:  cpu time      0.0009: real time      0.0009
    CHARGE:  cpu time      1.1110: real time      1.1111
    MIXING:  cpu time      0.0833: real time      0.0833
    --------------------------------------------
      LOOP:  cpu time     15.7134: real time     15.7146

 eigenvalue-minimisations  :   100
 total energy-change (2. order) :-0.1107551E-05  (-0.6865677E-04)
 number of electron      58.0000017 magnetization 
 augmentation part        1.2599476 magnetization 

 Broyden mixing:
  rms(total) = 0.31594E-02    rms(broyden)= 0.31560E-02
  rms(prec ) = 0.32100E-02
  weight for this iteration     100.00

 eigenvalues of (default mixing * dielectric matrix)
  average eigenvalue GAMMA=   1.2659
  1.2659

 Free energy of the ion-electron system (eV)
  ---------------------------------------------------
  alpha Z        PSCENC =         0.98165661
  Ewald energy   TEWEN  =      5849.66018941
  -Hartree energ DENC   =     -7363.51144810
  -exchange      EXHF   =         0.00000000
  -V(xc)+E(xc)   XCENC  =       190.80354131
  PAW double counting   =      4806.42015064    -4814.30940504
  entropy T*S    EENTRO =         0.01159594
  eigenvalues    EBANDS =      -703.13127809
  atomic energy  EATOM  =      1888.15124511
  Solvation  Ediel_sol  =         0.00000000
  ---------------------------------------------------
  free energy    TOTEN  =      -144.92375220 eV

  energy without entropy =     -144.93534814  energy(sigma->0) =     -144.92761752


--------------------------------------------------------------------------------------------------------




--------------------------------------- Iteration      7(   3)  ---------------------------------------


    POTLOK:  cpu time      3.3181: real time      3.3182
    SETDIJ:  cpu time      0.0031: real time      0.0031
     EDDAV:  cpu time     11.8598: real time     11.8606
       DOS:  cpu time      0.0004: real time      0.0004
    --------------------------------------------
      LOOP:  cpu time     15.1814: real time     15.1823

 eigenvalue-minimisations  :   108
 total energy-change (2. order) : 0.1347846E-05  (-0.9639819E-05)
 number of electron      58.0000017 magnetization 
 augmentation part        1.2599476 magnetization 

 Free energy of the ion-electron system (eV)
  ---------------------------------------------------
  alpha Z        PSCENC =         0.98165661
  Ewald energy   TEWEN  =      5849.66018941
  -Hartree energ DENC   =     -7363.60488669
  -exchange      EXHF   =         0.00000000
  -V(xc)+E(xc)   XCENC  =       190.80633522
  PAW double counting   =      4808.02636650    -4815.91672893
  entropy T*S    EENTRO =         0.01159593
  eigenvalues    EBANDS =      -703.03952401
  atomic energy  EATOM  =      1888.15124511
  Solvation  Ediel_sol  =         0.00000000
  ---------------------------------------------------
  free energy    TOTEN  =      -144.92375086 eV

  energy without entropy =     -144.93534678  energy(sigma->0) =     -144.92761617


--------------------------------------------------------------------------------------------------------




 average (electrostatic) potential at core
  the test charge radii are     0.6991  0.5201
  (the norm of the test charge is              1.0000)
       1 -59.2019       2 -58.9519       3 -58.9659       4 -58.9428       5 -58.9660
       6 -58.9519       7 -58.9422       8 -58.9654       9 -58.9514      10 -59.2014
      11 -58.9515      12 -58.9654      13 -41.9923      14 -41.9822      15 -41.9801
      16 -41.9822      17 -41.9923      18 -41.9802      19 -41.9817      20 -41.9918
      21 -41.9918      22 -41.9817



 E-fermi :  -5.4835     XC(G=0):  -0.2356     alpha+bet : -0.0924

 Fermi energy:        -5.4835163399

 k-point     1 :       0.0000    0.0000    0.0000
  band No.  band energies     occupation 
      1     -21.6053      2.00000
      2     -21.0147      2.00000
      3     -19.2601      2.00000
      4     -18.5435      2.00000
      5     -18.3394      2.00000
      6     -17.7665      2.00000
      7     -15.3706      2.00000
      8     -15.2133      2.00000
      9     -14.4700      2.00000
     10     -14.1460      2.00000
     11     -13.0324      2.00000
     12     -12.1260      2.00000
     13     -11.3881      2.00000
     14     -11.3196      2.00000
     15     -10.6062      2.00000
     16     -10.6013      2.00000
     17     -10.2374      2.00000
     18     -10.1411      2.00000
     19     -10.0339      2.00000
     20      -9.2646      2.00000
     21      -8.8136      2.00000
     22      -8.7222      2.00000
     23      -8.3741      2.00000
     24      -8.0445      2.00000
     25      -7.9311      2.00000
     26      -6.8781      2.00000
     27      -6.3247      2.00000
     28      -6.2996      2.00000
     29      -5.6519      2.00000
     30      -1.8124     -0.00000
     31      -1.2829     -0.00000
     32      -1.1564     -0.00000
     33      -0.5025     -0.00000
     34      -0.4615     -0.00000
     35      -0.2690     -0.00000
     36      -0.0944     -0.00000
     37       0.0249      0.00000
     38       0.1482      0.00000
     39       0.1546      0.00000
     40       0.1624      0.00000
     41       0.1992      0.00000
     42       0.2957      0.00000
     43       0.3285      0.00000
     44       0.3927      0.00000


--------------------------------------------------------------------------------------------------------


 soft charge-density along one line, spin component           1
         0         1         2         3         4         5         6         7         8         9
 total charge-density along one line

 pseudopotential strength for first ion, spin component:           1
 10.266  13.654  -0.000  -0.000   0.000   0.000  -0.000  -0.000
 13.654  18.158  -0.000  -0.000   0.000   0.000  -0.000  -0.000
 -0.000  -0.000  -4.408  -0.000   0.000   8.626   0.001  -0.000
 -0.000  -0.000  -0.000  -4.402  -0.000   0.001   8.619   0.000
  0.000   0.000   0.000  -0.000  -4.408  -0.000   0.000   8.626
  0.000   0.000   8.626   0.001  -0.000 -19.018  -0.000   0.000
 -0.000  -0.000   0.001   8.619   0.000  -0.000 -19.015  -0.000
 -0.000  -0.000  -0.000   0.000   8.626   0.000  -0.000 -19.019
 total augmentation occupancy for first ion, spin component:           1
  7.015  -2.974  -0.000   0.000  -0.104  -0.000   0.000  -0.022
 -2.974   1.340   0.000  -0.000   0.045   0.000  -0.000   0.010
 -0.000   0.000   1.923   0.043   0.000   0.203   0.006   0.000
  0.000  -0.000   0.043   1.257   0.000   0.006   0.104   0.000
 -0.104   0.045   0.000   0.000   1.831   0.000   0.000   0.192
 -0.000   0.000   0.203   0.006   0.000   0.023   0.001  -0.000
  0.000  -0.000   0.006   0.104   0.000   0.001   0.009   0.000
 -0.022   0.010   0.000   0.000   0.192  -0.000   0.000   0.021


------------------------ aborting loop because EDIFF is reached ----------------------------------------


    CHARGE:  cpu time      1.1109: real time      1.1110
    FORLOC:  cpu time      0.3379: real time      0.3379
    FORNL :  cpu time      1.7029: real time      1.7029
    STRESS:  cpu time      8.3282: real time      8.3286
    FORCOR:  cpu time      3.2292: real time      3.2294
    FORHAR:  cpu time      1.1067: real time      1.1067
    MIXING:  cpu time      0.0856: real time      0.0856
    OFIELD:  cpu time      0.0000: real time      0.0000

 ---------------------------------------------------------------------------------------------

         DFTD3 V3.0 Rev 1        
 Edisp (eV)   -0.71650

 E6    (eV) :    -0.4983
 E8    (eV) :    -0.2182
 % E8        : 30.46
    FORVDW:  cpu time      0.0042: real time      0.0042

  FORCE on cell =-STRESS in cart. coord.  units (eV):
  Direction    XX          YY          ZZ          XY          YZ          ZX
  --------------------------------------------------------------------------------------
  Alpha Z     0.98166     0.98166     0.98166
  Ewald    2572.91007  2530.47874   746.27057    -0.00416   846.36131     0.00741
  Hartree  2565.17298  2947.70973  1850.75832    -0.00408   512.49113     0.00768
  E(xc)    -207.04441  -208.66992  -212.33905     0.00000     1.78761    -0.00001
  Local   -5674.90663 -6035.97444 -3220.40203     0.00837 -1326.90282    -0.01538
  n-local   -70.26212   -69.78661   -65.66997    -0.00002    -2.00905     0.00003
  augment    -3.02590    -2.97598    -2.72986    -0.00000    -0.12009     0.00000
  Kinetic   805.64882   826.56961   891.35824    -0.00003   -31.56032     0.00026
  Fock        0.00000     0.00000     0.00000     0.00000     0.00000     0.00000
  vdW        -0.43657    -0.17746    -0.05402     0.00000    -0.06011    -0.00000
  -------------------------------------------------------------------------------------
  Total     -10.96212   -11.84467   -11.82615     0.00009    -0.01233    -0.00000
  in kB      -1.09770    -1.18608    -1.18422     0.00001    -0.00123    -0.00000
  external pressure =       -1.16 kB  Pullay stress =        0.00 kB


 VOLUME and BASIS-vectors are now :
 -----------------------------------------------------------------------------
  energy-cutoff  :      315.00
  volume of cell :    16000.00
      direct lattice vectors                 reciprocal lattice vectors
    40.000000000  0.000000000  0.000000000     0.025000000  0.000000000  0.000000000
     0.000000000 20.000000000  0.000000000     0.000000000  0.050000000  0.000000000
     0.000000000  0.000000000 20.000000000     0.000000000  0.000000000  0.050000000

  length of vectors
    40.000000000 20.000000000 20.000000000     0.025000000  0.050000000  0.050000000


 FORCES acting on ions
    electron-ion (+dipol)            ewald-force                    non-local-force                 convergence-correction
 -----------------------------------------------------------------------------------------------
   0.560E+00 -.142E-02 0.244E-02   -.695E+00 0.148E-02 -.245E-02   0.951E-01 0.277E-05 0.275E-04   0.898E-02 0.319E-06 0.452E-05
   0.136E+02 0.182E+03 0.667E+01   -.132E+02 -.183E+03 -.670E+01   -.420E+00 0.100E+01 0.275E-01   0.383E-02 0.240E-02 0.920E-03
   0.149E+03 0.165E+03 0.948E+01   -.150E+03 -.166E+03 -.959E+01   0.525E+00 0.785E+00 0.105E+00   0.214E-03 -.831E-03 -.963E-04
   0.231E+03 -.114E-03 0.124E-02   -.232E+03 0.896E-04 -.120E-02   0.106E+01 0.174E-05 -.168E-04   -.431E-02 0.126E-07 0.487E-05
   0.149E+03 -.165E+03 -.948E+01   -.150E+03 0.166E+03 0.959E+01   0.525E+00 -.785E+00 -.105E+00   0.209E-03 0.834E-03 0.103E-03
   0.136E+02 -.182E+03 -.666E+01   -.132E+02 0.183E+03 0.669E+01   -.420E+00 -.100E+01 -.275E-01   0.384E-02 -.238E-02 -.908E-03
   -.231E+03 0.128E-02 -.178E-02   0.232E+03 -.126E-02 0.174E-02   -.106E+01 -.774E-05 0.585E-06   0.439E-02 -.338E-05 -.124E-04
   -.149E+03 0.125E+03 0.109E+03   0.150E+03 -.126E+03 -.109E+03   -.525E+00 0.636E+00 0.473E+00   -.194E-03 -.461E-03 -.689E-03
   -.136E+02 0.135E+03 0.123E+03   0.132E+02 -.136E+03 -.123E+03   0.420E+00 0.739E+00 0.681E+00   -.379E-02 0.256E-02 0.801E-03
   -.555E+00 0.120E-02 -.255E-02   0.689E+00 -.117E-02 0.255E-02   -.947E-01 0.374E-05 -.227E-04   -.897E-02 0.366E-05 -.753E-05
   -.136E+02 -.135E+03 -.123E+03   0.132E+02 0.136E+03 0.123E+03   0.420E+00 -.739E+00 -.681E+00   -.379E-02 -.257E-02 -.825E-03
   -.149E+03 -.125E+03 -.109E+03   0.150E+03 0.126E+03 0.109E+03   -.525E+00 -.636E+00 -.473E+00   -.204E-03 0.451E-03 0.665E-03
   -.164E+02 0.839E+02 0.476E+00   0.191E+02 -.888E+02 -.613E+00   -.277E+01 0.486E+01 0.138E+00   0.800E-03 -.342E-03 0.298E-03
   0.509E+02 0.722E+02 0.365E+01   -.537E+02 -.771E+02 -.390E+01   0.277E+01 0.484E+01 0.249E+00   -.913E-03 -.101E-02 -.675E-04
   0.893E+02 -.378E-04 -.339E-03   -.949E+02 0.384E-04 0.385E-03   0.559E+01 -.306E-05 -.373E-04   -.486E-03 -.241E-06 0.604E-06
   0.509E+02 -.722E+02 -.365E+01   -.537E+02 0.771E+02 0.390E+01   0.277E+01 -.484E+01 -.249E+00   -.912E-03 0.101E-02 0.662E-04
   -.164E+02 -.839E+02 -.477E+00   0.191E+02 0.888E+02 0.614E+00   -.277E+01 -.486E+01 -.138E+00   0.798E-03 0.337E-03 -.297E-03
   -.893E+02 -.633E-03 0.620E-03   0.949E+02 0.689E-03 -.672E-03   -.559E+01 -.644E-04 0.692E-04   0.465E-03 -.764E-06 -.130E-05
   -.509E+02 0.543E+02 0.478E+02   0.537E+02 -.579E+02 -.510E+02   -.277E+01 0.364E+01 0.320E+01   0.922E-03 -.733E-03 -.682E-03
   0.164E+02 0.605E+02 0.583E+02   -.191E+02 -.640E+02 -.616E+02   0.277E+01 0.358E+01 0.329E+01   -.811E-03 -.260E-05 -.494E-03
   0.164E+02 -.605E+02 -.583E+02   -.191E+02 0.641E+02 0.616E+02   0.277E+01 -.358E+01 -.329E+01   -.814E-03 0.446E-05 0.495E-03
   -.509E+02 -.543E+02 -.478E+02   0.537E+02 0.579E+02 0.510E+02   -.277E+01 -.364E+01 -.320E+01   0.925E-03 0.736E-03 0.686E-03
 -----------------------------------------------------------------------------------------------
   0.485E-03 0.335E-03 -.831E-04   0.142E-13 0.426E-13 0.426E-13   -.657E-03 -.332E-03 0.121E-03   0.186E-03 0.666E-05 -.357E-04


 POSITION                                       TOTAL-FORCE (eV/Angst)
 -----------------------------------------------------------------------------------
     19.26092     10.00000      9.99997        -0.022696      0.000063      0.000030
     18.53856      8.79330      9.92474        -0.007126      0.011751      0.000565
     17.14167      8.79320      9.92489        -0.043506     -0.001236     -0.001169
     16.43517     10.00000      9.99997         0.020705     -0.000023      0.000034
     17.14167     11.20680     10.07505        -0.043449      0.001292      0.001212
     18.53857     11.20671     10.07519        -0.007147     -0.011849     -0.000496
     23.56404      9.99999      9.99999        -0.020998      0.000006     -0.000050
     22.85752      9.08338      9.21145         0.044177     -0.000571     -0.001076
     21.46065      9.08333      9.21165         0.006345      0.009937      0.006627
     20.73828      9.99999      9.99999         0.022910      0.000036     -0.000033
     21.46065     10.91665     10.78833         0.006298     -0.009866     -0.006678
     22.85751     10.91660     10.78852         0.044202      0.000688      0.001059
     19.08180      7.84229      9.89268         0.007693     -0.011024      0.000799
     16.59862      7.84230      9.87599         0.001108     -0.001549     -0.000963
     15.33935     10.00000      9.99997         0.006029     -0.000003      0.000008
     16.59862     12.15770     10.12401         0.001125      0.001534      0.000843
     19.08180     12.15772     10.10726         0.007711      0.011008     -0.000795
     24.65984     10.00000      9.99998        -0.005718     -0.000010      0.000015
     23.40059      8.36822      8.58289        -0.000822     -0.001077     -0.000922
     20.91739      8.37970      8.57108        -0.008009     -0.006217     -0.008834
     20.91739     11.62032     11.42887        -0.007983      0.006140      0.008834
     23.40059     11.63180     11.41704        -0.000849      0.000969      0.000991
 -----------------------------------------------------------------------------------
    total drift:                                0.000014      0.000010      0.000002


--------------------------------------------------------------------------------------------------------



  FREE ENERGIE OF THE ION-ELECTRON SYSTEM (eV)
  ---------------------------------------------------
  free  energy   TOTEN  =      -145.64025584 eV

  energy  without entropy=     -145.65185177  energy(sigma->0) =     -145.64412115

 d Force = 0.4184769E-03[-0.176E-04, 0.855E-03]  d Energy = 0.4168021E-03 0.167E-05
 d Force =-0.2440654E+01[-0.244E+01,-0.244E+01]  d Ewald  =-0.2440653E+01-0.731E-06


--------------------------------------------------------------------------------------------------------


    POTLOK:  cpu time      3.2841: real time      3.2843


--------------------------------------------------------------------------------------------------------




--------------------------------------------------------------------------------------------------------


    WAVPRE:  cpu time      0.8108: real time      0.8108
    FEWALD:  cpu time      0.0009: real time      0.0009
    ORTHCH:  cpu time      1.0228: real time      1.0229
     LOOP+:  cpu time     67.2412: real time     67.2455


--------------------------------------- Iteration      8(   1)  ---------------------------------------


    POTLOK:  cpu time      3.2826: real time      3.2829
    SETDIJ:  cpu time      0.0045: real time      0.0045
     EDDAV:  cpu time     10.4967: real time     10.4973
       DOS:  cpu time      0.0011: real time      0.0011
    CHARGE:  cpu time      1.1039: real time      1.1040
    MIXING:  cpu time      0.0809: real time      0.0809
    --------------------------------------------
      LOOP:  cpu time     14.9696: real time     14.9706

 eigenvalue-minimisations  :    92
 total energy-change (2. order) :-0.1069720E-03  (-0.3458784E-02)
 number of electron      58.0000016 magnetization 
 augmentation part        1.2595005 magnetization 

 Broyden mixing:
  rms(total) = 0.39094E-02    rms(broyden)= 0.38898E-02
  rms(prec ) = 0.39447E-02
  weight for this iteration     100.00

 Free energy of the ion-electron system (eV)
  ---------------------------------------------------
  alpha Z        PSCENC =         0.98165661
  Ewald energy   TEWEN  =      5848.19520393
  -Hartree energ DENC   =     -7362.31276586
  -exchange      EXHF   =         0.00000000
  -V(xc)+E(xc)   XCENC  =       190.79524198
  PAW double counting   =      4809.15042661    -4817.04109119
  entropy T*S    EENTRO =         0.01159597
  eigenvalues    EBANDS =      -702.85537233
  atomic energy  EATOM  =      1888.15124511
  Solvation  Ediel_sol  =         0.00000000
  ---------------------------------------------------
  free energy    TOTEN  =      -144.92385918 eV

  energy without entropy =     -144.93545515  energy(sigma->0) =     -144.92772450


--------------------------------------------------------------------------------------------------------




--------------------------------------- Iteration      8(   2)  ---------------------------------------


    POTLOK:  cpu time      3.3263: real time      3.3265
    SETDIJ:  cpu time      0.0033: real time      0.0033
     EDDAV:  cpu time     11.8721: real time     11.8730
       DOS:  cpu time      0.0009: real time      0.0009
    CHARGE:  cpu time      1.1135: real time      1.1136
    MIXING:  cpu time      0.0864: real time      0.0864
    --------------------------------------------
      LOOP:  cpu time     16.4026: real time     16.4038

 eigenvalue-minimisations  :   108
 total energy-change (2. order) :-0.1978987E-04  (-0.6196097E-04)
 number of electron      58.0000016 magnetization 
 augmentation part        1.2594338 magnetization 

 Broyden mixing:
  rms(total) = 0.27948E-02    rms(broyden)= 0.27911E-02
  rms(prec ) = 0.28381E-02
  weight for this iteration     100.00

 eigenvalues of (default mixing * dielectric matrix)
  average eigenvalue GAMMA=   1.1456
  1.1456

 Free energy of the ion-electron system (eV)
  ---------------------------------------------------
  alpha Z        PSCENC =         0.98165661
  Ewald energy   TEWEN  =      5848.19520393
  -Hartree energ DENC   =     -7362.27069412
  -exchange      EXHF   =         0.00000000
  -V(xc)+E(xc)   XCENC  =       190.79365736
  PAW double counting   =      4808.88726633    -4816.77735449
  entropy T*S    EENTRO =         0.01159597
  eigenvalues    EBANDS =      -702.89645566
  atomic energy  EATOM  =      1888.15124511
  Solvation  Ediel_sol  =         0.00000000
  ---------------------------------------------------
  free energy    TOTEN  =      -144.92387897 eV

  energy without entropy =     -144.93547493  energy(sigma->0) =     -144.92774429


--------------------------------------------------------------------------------------------------------




--------------------------------------- Iteration      8(   3)  ---------------------------------------


    POTLOK:  cpu time      3.3240: real time      3.3241
    SETDIJ:  cpu time      0.0031: real time      0.0031
     EDDAV:  cpu time     11.8533: real time     11.8541
       DOS:  cpu time      0.0009: real time      0.0008
    --------------------------------------------
      LOOP:  cpu time     15.1812: real time     15.1822

 eigenvalue-minimisations  :   108
 total energy-change (2. order) : 0.4320498E-05  (-0.6564366E-05)
 number of electron      58.0000016 magnetization 
 augmentation part        1.2594338 magnetization 

 Free energy of the ion-electron system (eV)
  ---------------------------------------------------
  alpha Z        PSCENC =         0.98165661
  Ewald energy   TEWEN  =      5848.19520393
  -Hartree energ DENC   =     -7362.22646056
  -exchange      EXHF   =         0.00000000
  -V(xc)+E(xc)   XCENC  =       190.79224749
  PAW double counting   =      4808.54457012    -4816.43412666
  entropy T*S    EENTRO =         0.01159597
  eigenvalues    EBANDS =      -702.93980665
  atomic energy  EATOM  =      1888.15124511
  Solvation  Ediel_sol  =         0.00000000
  ---------------------------------------------------
  free energy    TOTEN  =      -144.92387464 eV

  energy without entropy =     -144.93547061  energy(sigma->0) =     -144.92773997


--------------------------------------------------------------------------------------------------------




 average (electrostatic) potential at core
  the test charge radii are     0.6991  0.5201
  (the norm of the test charge is              1.0000)
       1 -59.2015       2 -58.9524       3 -58.9645       4 -58.9423       5 -58.9645
       6 -58.9524       7 -58.9418       8 -58.9640       9 -58.9519      10 -59.2010
      11 -58.9519      12 -58.9640      13 -41.9848      14 -41.9912      15 -41.9680
      16 -41.9912      17 -41.9847      18 -41.9680      19 -41.9908      20 -41.9844
      21 -41.9844      22 -41.9908



 E-fermi :  -5.4877     XC(G=0):  -0.2368     alpha+bet : -0.0924

 Fermi energy:        -5.4877200431

 k-point     1 :       0.0000    0.0000    0.0000
  band No.  band energies     occupation 
      1     -21.6010      2.00000
      2     -21.0147      2.00000
      3     -19.2571      2.00000
      4     -18.5396      2.00000
      5     -18.3365      2.00000
      6     -17.7676      2.00000
      7     -15.3598      2.00000
      8     -15.2147      2.00000
      9     -14.4731      2.00000
     10     -14.1440      2.00000
     11     -13.0302      2.00000
     12     -12.1204      2.00000
     13     -11.3834      2.00000
     14     -11.3155      2.00000
     15     -10.6096      2.00000
     16     -10.6021      2.00000
     17     -10.2377      2.00000
     18     -10.1359      2.00000
     19     -10.0346      2.00000
     20      -9.2625      2.00000
     21      -8.8142      2.00000
     22      -8.7093      2.00000
     23      -8.3831      2.00000
     24      -8.0313      2.00000
     25      -7.9391      2.00000
     26      -6.8792      2.00000
     27      -6.3214      2.00000
     28      -6.2963      2.00000
     29      -5.6561      2.00000
     30      -1.8047     -0.00000
     31      -1.2874     -0.00000
     32      -1.1612     -0.00000
     33      -0.5027     -0.00000
     34      -0.4593     -0.00000
     35      -0.2702     -0.00000
     36      -0.0943     -0.00000
     37       0.0249      0.00000
     38       0.1483      0.00000
     39       0.1530      0.00000
     40       0.1628      0.00000
     41       0.1968      0.00000
     42       0.2922      0.00000
     43       0.3267      0.00000
     44       0.3893      0.00000


--------------------------------------------------------------------------------------------------------


 soft charge-density along one line, spin component           1
         0         1         2         3         4         5         6         7         8         9
 total charge-density along one line

 pseudopotential strength for first ion, spin component:           1
 10.266  13.653   0.000   0.000   0.000  -0.000  -0.000   0.000
 13.653  18.158   0.000   0.000   0.000  -0.000  -0.000   0.000
  0.000   0.000  -4.408  -0.000   0.000   8.626   0.001  -0.000
  0.000   0.000  -0.000  -4.402  -0.000   0.001   8.619   0.000
  0.000   0.000   0.000  -0.000  -4.408  -0.000   0.000   8.626
 -0.000  -0.000   8.626   0.001  -0.000 -19.018  -0.000   0.000
 -0.000  -0.000   0.001   8.619   0.000  -0.000 -19.016  -0.000
  0.000   0.000  -0.000   0.000   8.626   0.000  -0.000 -19.019
 total augmentation occupancy for first ion, spin component:           1
  7.019  -2.976  -0.000   0.000  -0.106  -0.000   0.000  -0.022
 -2.976   1.341   0.000  -0.000   0.045   0.000  -0.000   0.010
 -0.000   0.000   1.923   0.043  -0.000   0.203   0.006  -0.000
  0.000  -0.000   0.043   1.256   0.000   0.006   0.104   0.000
 -0.106   0.045  -0.000   0.000   1.827  -0.000   0.000   0.192
 -0.000   0.000   0.203   0.006  -0.000   0.023   0.001  -0.000
  0.000  -0.000   0.006   0.104   0.000   0.001   0.009   0.000
 -0.022   0.010  -0.000   0.000   0.192  -0.000   0.000   0.021


------------------------ aborting loop because EDIFF is reached ----------------------------------------


    CHARGE:  cpu time      1.1121: real time      1.1122
    FORLOC:  cpu time      0.3384: real time      0.3384
    FORNL :  cpu time      1.7037: real time      1.7037
    STRESS:  cpu time      8.3542: real time      8.3547
    FORCOR:  cpu time      3.2223: real time      3.2225
    FORHAR:  cpu time      1.1006: real time      1.1006
    MIXING:  cpu time      0.0835: real time      0.0835
    OFIELD:  cpu time      0.0000: real time      0.0000

 ---------------------------------------------------------------------------------------------

         DFTD3 V3.0 Rev 1        
 Edisp (eV)   -0.71635

 E6    (eV) :    -0.4982
 E8    (eV) :    -0.2182
 % E8        : 30.46
    FORVDW:  cpu time      0.0040: real time      0.0040

  FORCE on cell =-STRESS in cart. coord.  units (eV):
  Direction    XX          YY          ZZ          XY          YZ          ZX
  --------------------------------------------------------------------------------------
  Alpha Z     0.98166     0.98166     0.98166
  Ewald    2570.44008  2531.24539   746.50899    -0.00467   846.69118     0.00693
  Hartree  2564.19603  2947.47292  1850.53297    -0.00370   512.52806     0.00689
  E(xc)    -207.03474  -208.65195  -212.32335    -0.00000     1.78886    -0.00001
  Local   -5671.78429 -6036.30509 -3220.34368     0.00828 -1327.20440    -0.01403
  n-local   -70.23293   -69.74417   -65.63957    -0.00002    -2.00331     0.00003
  augment    -3.02169    -2.97568    -2.72889     0.00000    -0.12043     0.00000
  Kinetic   805.70795   826.28851   891.20976     0.00007   -31.62664     0.00021
  Fock        0.00000     0.00000     0.00000     0.00000     0.00000     0.00000
  vdW        -0.43680    -0.17780    -0.05413     0.00000    -0.06023    -0.00000
  -------------------------------------------------------------------------------------
  Total     -11.18472   -11.86623   -11.85625    -0.00004    -0.00691     0.00002
  in kB      -1.11999    -1.18824    -1.18724    -0.00000    -0.00069     0.00000
  external pressure =       -1.17 kB  Pullay stress =        0.00 kB


 VOLUME and BASIS-vectors are now :
 -----------------------------------------------------------------------------
  energy-cutoff  :      315.00
  volume of cell :    16000.00
      direct lattice vectors                 reciprocal lattice vectors
    40.000000000  0.000000000  0.000000000     0.025000000  0.000000000  0.000000000
     0.000000000 20.000000000  0.000000000     0.000000000  0.050000000  0.000000000
     0.000000000  0.000000000 20.000000000     0.000000000  0.000000000  0.050000000

  length of vectors
    40.000000000 20.000000000 20.000000000     0.025000000  0.050000000  0.050000000


 FORCES acting on ions
    electron-ion (+dipol)            ewald-force                    non-local-force                 convergence-correction
 -----------------------------------------------------------------------------------------------
   0.214E+00 -.892E-03 0.227E-02   -.307E+00 0.835E-03 -.228E-02   0.125E+00 -.637E-04 0.231E-04   0.606E-02 0.517E-05 -.536E-05
   0.136E+02 0.182E+03 0.668E+01   -.132E+02 -.183E+03 -.670E+01   -.408E+00 0.100E+01 0.272E-01   -.683E-02 -.204E-02 -.738E-04
   0.149E+03 0.165E+03 0.950E+01   -.150E+03 -.166E+03 -.961E+01   0.570E+00 0.793E+00 0.106E+00   0.205E-03 0.382E-02 0.552E-03
   0.230E+03 -.444E-03 0.101E-02   -.232E+03 0.491E-03 -.948E-03   0.101E+01 0.261E-04 -.208E-04   -.392E-03 0.128E-04 -.918E-05
   0.149E+03 -.165E+03 -.950E+01   -.150E+03 0.166E+03 0.961E+01   0.570E+00 -.793E+00 -.106E+00   0.214E-03 -.383E-02 -.563E-03
   0.136E+02 -.182E+03 -.667E+01   -.132E+02 0.183E+03 0.670E+01   -.408E+00 -.100E+01 -.272E-01   -.683E-02 0.207E-02 0.568E-04
   -.230E+03 0.107E-02 -.171E-02   0.232E+03 -.102E-02 0.168E-02   -.101E+01 0.816E-07 0.566E-05   0.554E-03 -.300E-05 0.159E-04
   -.149E+03 0.125E+03 0.109E+03   0.150E+03 -.126E+03 -.109E+03   -.570E+00 0.642E+00 0.478E+00   -.361E-03 0.280E-02 0.264E-02
   -.136E+02 0.135E+03 0.123E+03   0.132E+02 -.136E+03 -.123E+03   0.409E+00 0.736E+00 0.680E+00   0.698E-02 -.184E-02 -.966E-03
   -.208E+00 0.117E-02 -.211E-02   0.300E+00 -.114E-02 0.208E-02   -.125E+00 0.443E-06 -.148E-04   -.609E-02 -.246E-05 0.125E-04
   -.136E+02 -.135E+03 -.123E+03   0.132E+02 0.136E+03 0.123E+03   0.409E+00 -.736E+00 -.680E+00   0.698E-02 0.182E-02 0.985E-03
   -.149E+03 -.125E+03 -.109E+03   0.150E+03 0.126E+03 0.109E+03   -.570E+00 -.642E+00 -.478E+00   -.373E-03 -.283E-02 -.263E-02
   -.164E+02 0.838E+02 0.467E+00   0.191E+02 -.887E+02 -.603E+00   -.276E+01 0.485E+01 0.137E+00   -.813E-03 0.285E-04 -.853E-05
   0.509E+02 0.723E+02 0.365E+01   -.537E+02 -.771E+02 -.390E+01   0.277E+01 0.486E+01 0.249E+00   0.260E-03 0.420E-03 0.962E-04
   0.893E+02 -.642E-04 -.292E-03   -.949E+02 0.661E-04 0.333E-03   0.557E+01 -.579E-05 -.316E-04   0.177E-02 0.947E-06 -.132E-05
   0.509E+02 -.723E+02 -.366E+01   -.537E+02 0.771E+02 0.391E+01   0.277E+01 -.486E+01 -.249E+00   0.259E-03 -.419E-03 -.940E-04
   -.164E+02 -.838E+02 -.468E+00   0.191E+02 0.887E+02 0.603E+00   -.276E+01 -.485E+01 -.137E+00   -.817E-03 -.330E-04 0.657E-05
   -.893E+02 -.531E-03 0.501E-03   0.949E+02 0.577E-03 -.547E-03   -.557E+01 -.551E-04 0.565E-04   -.180E-02 -.227E-06 0.130E-05
   -.509E+02 0.543E+02 0.479E+02   0.537E+02 -.580E+02 -.511E+02   -.277E+01 0.365E+01 0.321E+01   -.266E-03 0.293E-03 0.269E-03
   0.164E+02 0.604E+02 0.582E+02   -.191E+02 -.640E+02 -.615E+02   0.276E+01 0.357E+01 0.328E+01   0.823E-03 -.646E-04 0.740E-04
   0.164E+02 -.604E+02 -.582E+02   -.191E+02 0.640E+02 0.615E+02   0.276E+01 -.357E+01 -.328E+01   0.823E-03 0.638E-04 -.727E-04
   -.509E+02 -.543E+02 -.479E+02   0.537E+02 0.580E+02 0.511E+02   -.277E+01 -.365E+01 -.321E+01   -.265E-03 -.291E-03 -.268E-03
 -----------------------------------------------------------------------------------------------
   -.231E-03 0.480E-03 -.161E-04   -.284E-13 0.178E-12 0.711E-13   0.268E-03 -.481E-03 -.146E-05   0.871E-04 -.131E-04 0.155E-04


 POSITION                                       TOTAL-FORCE (eV/Angst)
 -----------------------------------------------------------------------------------
     19.25974     10.00000      9.99997         0.046864     -0.000114      0.000016
     18.53793      8.79306      9.92471        -0.016688     -0.006901      0.001219
     17.14014      8.79292      9.92481         0.040796     -0.002759     -0.000775
     16.43581     10.00000      9.99997        -0.074895      0.000087      0.000032
     17.14014     11.20709     10.07513         0.040757      0.002596      0.000800
     18.53793     11.20695     10.07522        -0.016696      0.007046     -0.001158
     23.56339      9.99999      9.99999         0.076066      0.000048     -0.000009
     22.85906      9.08318      9.21126        -0.042320     -0.001947     -0.002389
     21.46126      9.08319      9.21144         0.018353     -0.003366     -0.006541
     20.73946      9.99999      9.99999        -0.047630      0.000026     -0.000036
     21.46126     10.91679     10.78854         0.018378      0.003422      0.006494
     22.85906     10.91681     10.78871        -0.042362      0.001903      0.002267
     19.08230      7.84160      9.89271        -0.009408      0.013735      0.001246
     16.59857      7.84196      9.87593        -0.017030     -0.012669     -0.001704
     15.33912     10.00000      9.99997         0.028743     -0.000002      0.000007
     16.59857     12.15804     10.12406        -0.017038      0.012727      0.001606
     19.08230     12.15841     10.10723        -0.009408     -0.013780     -0.001241
     24.66008     10.00000      9.99998        -0.029028     -0.000009      0.000012
     23.40066      8.36797      8.58267         0.017393     -0.009574     -0.008407
     20.91688      8.37928      8.57055         0.008867      0.011552      0.007649
     20.91688     11.62073     11.42940         0.008859     -0.011581     -0.007620
     23.40066     11.63205     11.41726         0.017425      0.009564      0.008533
 -----------------------------------------------------------------------------------
    total drift:                                0.000124     -0.000014     -0.000002


--------------------------------------------------------------------------------------------------------



  FREE ENERGIE OF THE ION-ELECTRON SYSTEM (eV)
  ---------------------------------------------------
  free  energy   TOTEN  =      -145.64022549 eV

  energy  without entropy=     -145.65182146  energy(sigma->0) =     -145.64409081

 d Force =-0.2794206E-04[-0.457E-03, 0.401E-03]  d Energy =-0.3035272E-04 0.241E-05
 d Force = 0.1464987E+01[ 0.146E+01, 0.147E+01]  d Ewald  = 0.1464985E+01 0.125E-05


--------------------------------------------------------------------------------------------------------


    POTLOK:  cpu time      3.2816: real time      3.2817


--------------------------------------------------------------------------------------------------------


 Conjugate gradient step on ions:
 trial-energy change:    0.000030  1 .order    0.000028   -0.000401    0.000457
  (g-gl).g = 0.507E-03      g.g   = 0.538E-03  gl.gl    = 0.226E-02
 g(Force)  = 0.538E-03   g(Stress)= 0.000E+00 ortho     = 0.446E-04
 gamma     =   0.22411
 trial     =   0.73236
 opt step  =   0.34235  (harmonic =   0.34235) maximal distance =0.00072189
 next E    =  -145.640350   (d E  =  -0.00009)


--------------------------------------------------------------------------------------------------------


    WAVPRE:  cpu time      0.8141: real time      0.8141
    FEWALD:  cpu time      0.0006: real time      0.0006
    ORTHCH:  cpu time      1.0162: real time      1.0163
     LOOP+:  cpu time     67.5891: real time     67.5934


--------------------------------------- Iteration      9(   1)  ---------------------------------------


    POTLOK:  cpu time      3.2823: real time      3.2824
    SETDIJ:  cpu time      0.0032: real time      0.0032
     EDDAV:  cpu time     10.5097: real time     10.5136
       DOS:  cpu time      0.0016: real time      0.0016
    CHARGE:  cpu time      1.0855: real time      1.0882
    MIXING:  cpu time      0.0823: real time      0.0831
    --------------------------------------------
      LOOP:  cpu time     14.9646: real time     14.9720

 eigenvalue-minimisations  :    92
 total energy-change (2. order) :-0.3513157E-04  (-0.9913103E-03)
 number of electron      58.0000016 magnetization 
 augmentation part        1.2596625 magnetization 

 Broyden mixing:
  rms(total) = 0.18278E-02    rms(broyden)= 0.18160E-02
  rms(prec ) = 0.18502E-02
  weight for this iteration     100.00

 Free energy of the ion-electron system (eV)
  ---------------------------------------------------
  alpha Z        PSCENC =         0.98165661
  Ewald energy   TEWEN  =      5848.97511151
  -Hartree energ DENC   =     -7362.90805425
  -exchange      EXHF   =         0.00000000
  -V(xc)+E(xc)   XCENC  =       190.79789684
  PAW double counting   =      4808.14364890    -4816.03296963
  entropy T*S    EENTRO =         0.01159595
  eigenvalues    EBANDS =      -703.04404513
  atomic energy  EATOM  =      1888.15124511
  Solvation  Ediel_sol  =         0.00000000
  ---------------------------------------------------
  free energy    TOTEN  =      -144.92391410 eV

  energy without entropy =     -144.93551004  energy(sigma->0) =     -144.92777941


--------------------------------------------------------------------------------------------------------




--------------------------------------- Iteration      9(   2)  ---------------------------------------


    POTLOK:  cpu time      3.3326: real time      3.3341
    SETDIJ:  cpu time      0.0032: real time      0.0032
     EDDAV:  cpu time     12.1861: real time     12.2096
       DOS:  cpu time      0.0004: real time      0.0004
    CHARGE:  cpu time      1.1070: real time      1.1110
    MIXING:  cpu time      0.0839: real time      0.0841
    --------------------------------------------
      LOOP:  cpu time     16.7131: real time     16.7424

 eigenvalue-minimisations  :   112
 total energy-change (2. order) :-0.8613930E-05  (-0.1948547E-04)
 number of electron      58.0000016 magnetization 
 augmentation part        1.2597042 magnetization 

 Broyden mixing:
  rms(total) = 0.13931E-02    rms(broyden)= 0.13907E-02
  rms(prec ) = 0.14155E-02
  weight for this iteration     100.00

 eigenvalues of (default mixing * dielectric matrix)
  average eigenvalue GAMMA=   0.9458
  0.9458

 Free energy of the ion-electron system (eV)
  ---------------------------------------------------
  alpha Z        PSCENC =         0.98165661
  Ewald energy   TEWEN  =      5848.97511151
  -Hartree energ DENC   =     -7362.93025406
  -exchange      EXHF   =         0.00000000
  -V(xc)+E(xc)   XCENC  =       190.79871816
  PAW double counting   =      4808.40891936    -4816.29853746
  entropy T*S    EENTRO =         0.01159595
  eigenvalues    EBANDS =      -703.02237790
  atomic energy  EATOM  =      1888.15124511
  Solvation  Ediel_sol  =         0.00000000
  ---------------------------------------------------
  free energy    TOTEN  =      -144.92392271 eV

  energy without entropy =     -144.93551866  energy(sigma->0) =     -144.92778803


--------------------------------------------------------------------------------------------------------




--------------------------------------- Iteration      9(   3)  ---------------------------------------


    POTLOK:  cpu time      3.2958: real time      3.3252
    SETDIJ:  cpu time      0.0031: real time      0.0031
     EDDAV:  cpu time     10.1155: real time     10.2074
       DOS:  cpu time      0.0008: real time      0.0008
    --------------------------------------------
      LOOP:  cpu time     13.4152: real time     13.5365

 eigenvalue-minimisations  :    88
 total energy-change (2. order) : 0.3532955E-06  (-0.1478318E-05)
 number of electron      58.0000016 magnetization 
 augmentation part        1.2597042 magnetization 

 Free energy of the ion-electron system (eV)
  ---------------------------------------------------
  alpha Z        PSCENC =         0.98165661
  Ewald energy   TEWEN  =      5848.97511151
  -Hartree energ DENC   =     -7362.94985523
  -exchange      EXHF   =         0.00000000
  -V(xc)+E(xc)   XCENC  =       190.79932923
  PAW double counting   =      4808.61529416    -4816.50515135
  entropy T*S    EENTRO =         0.01159595
  eigenvalues    EBANDS =      -703.00314835
  atomic energy  EATOM  =      1888.15124511
  Solvation  Ediel_sol  =         0.00000000
  ---------------------------------------------------
  free energy    TOTEN  =      -144.92392236 eV

  energy without entropy =     -144.93551830  energy(sigma->0) =     -144.92778767


--------------------------------------------------------------------------------------------------------




 average (electrostatic) potential at core
  the test charge radii are     0.6991  0.5201
  (the norm of the test charge is              1.0000)
       1 -59.2034       2 -58.9521       3 -58.9652       4 -58.9434       5 -58.9652
       6 -58.9521       7 -58.9429       8 -58.9646       9 -58.9516      10 -59.2029
      11 -58.9516      12 -58.9646      13 -41.9890      14 -41.9856      15 -41.9748
      16 -41.9856      17 -41.9890      18 -41.9749      19 -41.9851      20 -41.9886
      21 -41.9886      22 -41.9851



 E-fermi :  -5.4857     XC(G=0):  -0.2366     alpha+bet : -0.0924

 Fermi energy:        -5.4857133122

 k-point     1 :       0.0000    0.0000    0.0000
  band No.  band energies     occupation 
      1     -21.6035      2.00000
      2     -21.0149      2.00000
      3     -19.2592      2.00000
      4     -18.5419      2.00000
      5     -18.3383      2.00000
      6     -17.7670      2.00000
      7     -15.3665      2.00000
      8     -15.2138      2.00000
      9     -14.4712      2.00000
     10     -14.1452      2.00000
     11     -13.0314      2.00000
     12     -12.1238      2.00000
     13     -11.3862      2.00000
     14     -11.3180      2.00000
     15     -10.6075      2.00000
     16     -10.6018      2.00000
     17     -10.2375      2.00000
     18     -10.1390      2.00000
     19     -10.0342      2.00000
     20      -9.2638      2.00000
     21      -8.8141      2.00000
     22      -8.7166      2.00000
     23      -8.3782      2.00000
     24      -8.0390      2.00000
     25      -7.9347      2.00000
     26      -6.8791      2.00000
     27      -6.3232      2.00000
     28      -6.2980      2.00000
     29      -5.6541      2.00000
     30      -1.8093     -0.00000
     31      -1.2848     -0.00000
     32      -1.1585     -0.00000
     33      -0.5022     -0.00000
     34      -0.4609     -0.00000
     35      -0.2692     -0.00000
     36      -0.0936     -0.00000
     37       0.0248      0.00000
     38       0.1480      0.00000
     39       0.1528      0.00000
     40       0.1635      0.00000
     41       0.1986      0.00000
     42       0.2930      0.00000
     43       0.3264      0.00000
     44       0.3920      0.00000


--------------------------------------------------------------------------------------------------------


 soft charge-density along one line, spin component           1
         0         1         2         3         4         5         6         7         8         9
 total charge-density along one line

 pseudopotential strength for first ion, spin component:           1
 10.266  13.654  -0.000  -0.000   0.000   0.000  -0.000  -0.000
 13.654  18.158  -0.000  -0.000   0.000   0.000  -0.000  -0.000
 -0.000  -0.000  -4.408  -0.000   0.000   8.626   0.001  -0.000
 -0.000  -0.000  -0.000  -4.403  -0.000   0.001   8.619   0.000
  0.000   0.000   0.000  -0.000  -4.408  -0.000   0.000   8.626
  0.000   0.000   8.626   0.001  -0.000 -19.018  -0.000   0.000
 -0.000  -0.000   0.001   8.619   0.000  -0.000 -19.016  -0.000
 -0.000  -0.000  -0.000   0.000   8.626   0.000  -0.000 -19.020
 total augmentation occupancy for first ion, spin component:           1
  7.013  -2.973  -0.000   0.000  -0.105  -0.000   0.000  -0.022
 -2.973   1.339   0.000  -0.000   0.045   0.000  -0.000   0.010
 -0.000   0.000   1.923   0.043  -0.000   0.203   0.006  -0.000
  0.000  -0.000   0.043   1.256   0.000   0.006   0.104   0.000
 -0.105   0.045  -0.000   0.000   1.829  -0.000   0.000   0.192
 -0.000   0.000   0.203   0.006  -0.000   0.023   0.001  -0.000
  0.000  -0.000   0.006   0.104   0.000   0.001   0.009   0.000
 -0.022   0.010  -0.000   0.000   0.192  -0.000   0.000   0.021


------------------------ aborting loop because EDIFF is reached ----------------------------------------


    CHARGE:  cpu time      1.1001: real time      1.1110
    FORLOC:  cpu time      0.3353: real time      0.3360
    FORNL :  cpu time      1.7096: real time      1.7288
    STRESS:  cpu time      8.2010: real time      8.3137
    FORCOR:  cpu time      3.2110: real time      3.2191
    FORHAR:  cpu time      1.0900: real time      1.1032
    MIXING:  cpu time      0.0820: real time      0.0847
    OFIELD:  cpu time      0.0000: real time      0.0000

 ---------------------------------------------------------------------------------------------

         DFTD3 V3.0 Rev 1        
 Edisp (eV)   -0.71643

 E6    (eV) :    -0.4982
 E8    (eV) :    -0.2182
 % E8        : 30.46
    FORVDW:  cpu time      0.0040: real time      0.0040

  FORCE on cell =-STRESS in cart. coord.  units (eV):
  Direction    XX          YY          ZZ          XY          YZ          ZX
  --------------------------------------------------------------------------------------
  Alpha Z     0.98166     0.98166     0.98166
  Ewald    2571.75536  2530.83699   746.38199    -0.00440   846.51546     0.00719
  Hartree  2564.74118  2947.59268  1850.65159    -0.00392   512.50561     0.00732
  E(xc)    -207.03936  -208.66098  -212.33115    -0.00000     1.78818    -0.00001
  Local   -5673.48472 -6036.11304 -3220.36882     0.00833 -1327.03823    -0.01475
  n-local   -70.24750   -69.76811   -65.65652    -0.00002    -2.00666     0.00003
  augment    -3.02417    -2.97569    -2.72937    -0.00000    -0.12019     0.00000
  Kinetic   805.66981   826.44947   891.29520     0.00001   -31.58888     0.00024
  Fock        0.00000     0.00000     0.00000     0.00000     0.00000     0.00000
  vdW        -0.43668    -0.17762    -0.05407     0.00000    -0.06017    -0.00000
  -------------------------------------------------------------------------------------
  Total     -11.08443   -11.83465   -11.82949     0.00001    -0.00488     0.00001
  in kB      -1.10995    -1.18508    -1.18456     0.00000    -0.00049     0.00000
  external pressure =       -1.16 kB  Pullay stress =        0.00 kB


 VOLUME and BASIS-vectors are now :
 -----------------------------------------------------------------------------
  energy-cutoff  :      315.00
  volume of cell :    16000.00
      direct lattice vectors                 reciprocal lattice vectors
    40.000000000  0.000000000  0.000000000     0.025000000  0.000000000  0.000000000
     0.000000000 20.000000000  0.000000000     0.000000000  0.050000000  0.000000000
     0.000000000  0.000000000 20.000000000     0.000000000  0.000000000  0.050000000

  length of vectors
    40.000000000 20.000000000 20.000000000     0.025000000  0.050000000  0.050000000


 FORCES acting on ions
    electron-ion (+dipol)            ewald-force                    non-local-force                 convergence-correction
 -----------------------------------------------------------------------------------------------
   0.412E+00 -.118E-02 0.236E-02   -.513E+00 0.118E-02 -.237E-02   0.110E+00 -.252E-04 0.275E-04   -.527E-02 0.229E-05 0.497E-05
   0.136E+02 0.182E+03 0.667E+01   -.132E+02 -.183E+03 -.670E+01   -.414E+00 0.100E+01 0.275E-01   0.135E-02 0.390E-03 0.141E-04
   0.149E+03 0.165E+03 0.949E+01   -.150E+03 -.166E+03 -.960E+01   0.545E+00 0.790E+00 0.106E+00   -.273E-02 -.195E-02 -.340E-03
   0.231E+03 -.253E-03 0.112E-02   -.232E+03 0.277E-03 -.108E-02   0.104E+01 0.117E-04 -.170E-04   0.209E-03 -.680E-05 0.639E-05
   0.149E+03 -.165E+03 -.949E+01   -.150E+03 0.166E+03 0.960E+01   0.545E+00 -.790E+00 -.106E+00   -.274E-02 0.195E-02 0.349E-03
   0.136E+02 -.182E+03 -.667E+01   -.132E+02 0.183E+03 0.670E+01   -.414E+00 -.100E+01 -.275E-01   0.135E-02 -.404E-03 -.111E-05
   -.231E+03 0.118E-02 -.173E-02   0.232E+03 -.115E-02 0.171E-02   -.104E+01 -.536E-05 -.476E-06   -.288E-03 0.434E-05 -.884E-05
   -.149E+03 0.125E+03 0.109E+03   0.150E+03 -.126E+03 -.109E+03   -.546E+00 0.640E+00 0.476E+00   0.285E-02 -.139E-02 -.137E-02
   -.136E+02 0.135E+03 0.123E+03   0.132E+02 -.136E+03 -.123E+03   0.414E+00 0.739E+00 0.682E+00   -.148E-02 0.538E-03 -.203E-04
   -.407E+00 0.118E-02 -.234E-02   0.507E+00 -.115E-02 0.233E-02   -.110E+00 0.530E-05 -.196E-04   0.530E-02 0.537E-05 -.706E-05
   -.136E+02 -.135E+03 -.123E+03   0.132E+02 0.136E+03 0.123E+03   0.414E+00 -.739E+00 -.682E+00   -.148E-02 -.524E-03 0.870E-05
   -.149E+03 -.125E+03 -.109E+03   0.150E+03 0.126E+03 0.109E+03   -.546E+00 -.640E+00 -.476E+00   0.286E-02 0.141E-02 0.137E-02
   -.164E+02 0.839E+02 0.472E+00   0.191E+02 -.887E+02 -.608E+00   -.277E+01 0.485E+01 0.138E+00   0.408E-03 -.582E-03 -.394E-05
   0.509E+02 0.722E+02 0.365E+01   -.537E+02 -.771E+02 -.390E+01   0.277E+01 0.485E+01 0.249E+00   -.254E-03 -.862E-05 -.492E-04
   0.893E+02 -.494E-04 -.318E-03   -.949E+02 0.513E-04 0.360E-03   0.558E+01 -.430E-05 -.349E-04   -.716E-03 -.479E-06 0.844E-06
   0.509E+02 -.722E+02 -.365E+01   -.537E+02 0.771E+02 0.391E+01   0.277E+01 -.485E+01 -.249E+00   -.254E-03 0.772E-05 0.482E-04
   -.164E+02 -.839E+02 -.473E+00   0.191E+02 0.887E+02 0.609E+00   -.277E+01 -.485E+01 -.138E+00   0.410E-03 0.583E-03 0.549E-05
   -.893E+02 -.587E-03 0.565E-03   0.949E+02 0.637E-03 -.614E-03   -.558E+01 -.601E-04 0.634E-04   0.728E-03 0.449E-06 -.615E-06
   -.509E+02 0.543E+02 0.479E+02   0.537E+02 -.580E+02 -.511E+02   -.277E+01 0.365E+01 0.321E+01   0.262E-03 0.652E-05 -.597E-05
   0.164E+02 0.604E+02 0.582E+02   -.191E+02 -.640E+02 -.615E+02   0.277E+01 0.357E+01 0.329E+01   -.418E-03 -.367E-03 -.439E-03
   0.164E+02 -.604E+02 -.582E+02   -.191E+02 0.640E+02 0.615E+02   0.277E+01 -.357E+01 -.329E+01   -.418E-03 0.367E-03 0.438E-03
   -.509E+02 -.543E+02 -.478E+02   0.537E+02 0.580E+02 0.511E+02   -.277E+01 -.365E+01 -.321E+01   0.261E-03 -.774E-05 0.497E-05
 -----------------------------------------------------------------------------------------------
   0.273E-03 0.357E-03 -.657E-04   -.213E-13 0.213E-12 -.497E-13   -.245E-03 -.390E-03 0.692E-04   -.541E-04 0.308E-04 -.350E-06


 POSITION                                       TOTAL-FORCE (eV/Angst)
 -----------------------------------------------------------------------------------
     19.26037     10.00000      9.99997         0.011638     -0.000020      0.000024
     18.53827      8.79319      9.92473        -0.011808      0.003730      0.000959
     17.14095      8.79307      9.92485        -0.003520     -0.001440     -0.000923
     16.43547     10.00000      9.99997        -0.024514      0.000029      0.000033
     17.14095     11.20694     10.07509        -0.003508      0.001391      0.000957
     18.53827     11.20682     10.07520        -0.011821     -0.003713     -0.000892
     23.56374      9.99999      9.99999         0.024921      0.000026     -0.000031
     22.85824      9.08329      9.21136         0.003143     -0.000822     -0.001347
     21.46094      9.08327      9.21155         0.012190      0.004289      0.000883
     20.73883      9.99999      9.99999        -0.011876      0.000033     -0.000034
     21.46093     10.91672     10.78843         0.012175     -0.004224     -0.000934
     22.85824     10.91670     10.78861         0.003136      0.000860      0.001278
     19.08203      7.84196      9.89270        -0.000533      0.000960      0.001047
     16.59860      7.84214      9.87596        -0.007829     -0.007512     -0.001336
     15.33925     10.00000      9.99997         0.017141     -0.000003      0.000008
     16.59860     12.15786     10.12403        -0.007825      0.007533      0.001226
     19.08203     12.15804     10.10725        -0.000526     -0.000995     -0.001044
     24.65995     10.00000      9.99998        -0.017132     -0.000010      0.000014
     23.40062      8.36811      8.58279         0.008161     -0.005634     -0.004936
     20.91715      8.37950      8.57083         0.000107      0.002401     -0.000882
     20.91715     11.62051     11.42912         0.000116     -0.002454      0.000897
     23.40062     11.63192     11.41714         0.008165      0.005575      0.005035
 -----------------------------------------------------------------------------------
    total drift:                               -0.000026     -0.000001      0.000003


--------------------------------------------------------------------------------------------------------



  FREE ENERGIE OF THE ION-ELECTRON SYSTEM (eV)
  ---------------------------------------------------
  free  energy   TOTEN  =      -145.64035533 eV

  energy  without entropy=     -145.65195127  energy(sigma->0) =     -145.64422064

 d Force = 0.1244283E-03[ 0.529E-05, 0.244E-03]  d Energy = 0.1298364E-03-0.541E-05
 d Force =-0.7799078E+00[-0.780E+00,-0.780E+00]  d Ewald  =-0.7799076E+00-0.187E-06


--------------------------------------------------------------------------------------------------------


    POTLOK:  cpu time      3.2574: real time      3.2747


--------------------------------------------------------------------------------------------------------




--------------------------------------------------------------------------------------------------------


  
 reached required accuracy - stopping structural energy minimisation
 writing wavefunctions
     LOOP+:  cpu time     64.2192: real time     64.5831
    4ORBIT:  cpu time      0.0000: real time      0.0000

 total amount of memory used by VASP MPI-rank0   939003. kBytes
=======================================================================

   base      :      30000. kBytes
   nonl-proj :      97476. kBytes
   fftplans  :     247617. kBytes
   grid      :     528076. kBytes
   one-center:         67. kBytes
   wavefun   :      35767. kBytes

  
  
 General timing and accounting informations for this job:
 ========================================================
  
                  Total CPU time used (sec):     1162.687
                            User time (sec):     1108.544
                          System time (sec):       54.142
                         Elapsed time (sec):     1164.087
  
                   Maximum memory used (kb):     1191368.
                   Average memory used (kb):          N/A
  
                          Minor page faults:     44859602
                          Major page faults:           24
                 Voluntary context switches:         1461
