14
Properties=species:S:1:pos:R:3:forces:R:3 energy=-4305.766939119078 dipole="0.0 -0.0 0.0" free_energy=-4305.766939119078 pbc="F F F"
C        0.00000009      -0.13338294       1.95858567       0.00000079      -0.00078943      -0.00693419
C        0.00000008       0.50891213       0.57177150      -0.00000098       0.00129292      -0.00539092
C        0.00000012      -0.50891229      -0.57177124       0.00000029      -0.00129292       0.00539183
C        0.00000004       0.13338299      -1.95858535       0.00000026       0.00079022       0.00693334
H        0.00000005       0.62455985       2.75829338      -0.00000002       0.00004489       0.00235948
H        0.88870376      -0.77087737       2.10298434       0.00099298      -0.00186279       0.00164359
H       -0.88870355      -0.77087740       2.10298431      -0.00099323      -0.00186292       0.00164377
H        0.88145384       1.16861095       0.46843321      -0.00318340      -0.00159123       0.00064738
H       -0.88145378       1.16861083       0.46843318       0.00318412      -0.00159199       0.00064730
H       -0.88145376      -1.16861099      -0.46843292       0.00318399       0.00159125      -0.00064678
H        0.88145397      -1.16861101      -0.46843297      -0.00318391       0.00159124      -0.00064716
H       -0.88870364       0.77087744      -2.10298392      -0.00099286       0.00186259      -0.00164309
H        0.00000004      -0.62455972      -2.75829311      -0.00000010      -0.00004510      -0.00235978
H        0.88870368       0.77087745      -2.10298398       0.00099300       0.00186275      -0.00164335
14
Properties=species:S:1:pos:R:3:forces:R:3 energy=-4304.8360880037335 dipole="0.000269880377387559 -0.00010583544211276824 -0.00012700253053532187" free_energy=-4304.8360880037335 pbc="F F F"
C       -0.00214784      -0.18063877       2.10627723       0.01460798      -1.44781068      -0.50176919
C        0.00037143       0.31974598       0.66294677      -0.04383859       4.19963541      -0.83072641
C        0.01257758      -0.34352488      -0.70432022       0.05362137      -4.19207997       0.84989315
C        0.00618810       0.15657296      -2.14716649      -0.02476599       1.43617378       0.49594280
H        0.00969947       0.70068108       2.76217233      -0.00454801      -0.00316710       0.00085055
H        0.87903258      -0.79991740       2.35217363       0.00100372       0.00883474       0.00050271
H       -0.89638148      -0.77920132       2.35543757       0.00243656       0.00126144      -0.00382651
H        0.85136859       1.03787585       0.63994126      -0.00150092      -0.00140327      -0.00083716
H       -0.86147966       1.02491958       0.63305062       0.00560879      -0.00104419       0.00074304
H       -0.83117551      -1.06996706      -0.67873599      -0.00414197       0.00003673      -0.00199717
H        0.88090970      -1.04000797      -0.67587641       0.00306854      -0.00684864      -0.00207599
H       -0.89179985       0.74903351      -2.39623501      -0.00722791       0.00273623      -0.00117491
H        0.02281960      -0.72510809      -2.80236187       0.00061371       0.00279126      -0.00513563
H        0.88326893       0.78076724      -2.39356473       0.00597592       0.00081705      -0.00037164
14
Properties=species:S:1:pos:R:3:forces:R:3 energy=-4301.92955880816 dipole="0.0007302645505781008 -1.0583544211276824e-05 -3.704240473946888e-05" free_energy=-4301.92955880816 pbc="F F F"
C       -0.00440320      -0.22616977       2.25571809       0.02684827      -2.63146268      -0.53341309
C        0.00435726       0.08875291       0.72617144      -0.14797862       7.97271448      -0.24456672
C        0.01796828      -0.13683656      -0.80790912       0.22224018      -7.96744390       0.24181235
C        0.01109855       0.17775088      -2.33768861      -0.10056721       2.62728213       0.53586451
H        0.01063977       0.75191243       2.74717384      -0.00790196       0.00176776      -0.00427077
H        0.87054173      -0.80520499       2.60177559       0.00847003       0.00308867       0.00009995
H       -0.90132720      -0.77536472       2.59297528      -0.00237139      -0.00551533      -0.00200077
H        0.82776006       0.84746476       0.78947446       0.00293981      -0.00567803      -0.00257173
H       -0.83585859       0.83066474       0.78080187       0.00545452       0.00262829      -0.00299096
H       -0.78424541      -0.91870221      -0.87072223      -0.00382013       0.00251945       0.00408419
H        0.87811942      -0.85442431      -0.86324438      -0.00256806      -0.00225425       0.00351550
H       -0.89243866       0.71206250      -2.68208106      -0.00191905      -0.00236568       0.00040061
H        0.04508832      -0.80036586      -2.82829959       0.00112392       0.00236833       0.00295782
H        0.87920201       0.77092171      -2.67667031       0.00098878       0.00192435       0.00080706
14
Properties=species:S:1:pos:R:3:forces:R:3 energy=-4300.383673438799 dipole="0.0025929683317628214 0.00013229430264096028 0.00016404493527479076" free_energy=-4300.383673438799 pbc="F F F"
C       -0.00717193      -0.25471236       2.29555259      -0.00766561      -2.88336985      -0.43891259
C        0.00630097      -0.01725693       0.72926830      -0.13933258       8.73171654       0.29504982
C        0.01900885      -0.05534137      -0.85202497       0.30498050      -8.74033710      -0.29669382
C        0.01697370       0.18172568      -2.41841792      -0.15879608       2.89336429       0.43947922
H       -0.00168195       0.74967719       2.72828255       0.00114434      -0.00849467       0.00151490
H        0.87178568      -0.80948945       2.66966999      -0.00253657       0.00338947      -0.00217829
H       -0.90124391      -0.79351383       2.65600558       0.00005975      -0.00197675       0.00020988
H        0.83219675       0.73737359       0.82298480       0.00203537       0.00670725       0.00116167
H       -0.81855929       0.74155578       0.81441979       0.00097655       0.00272202       0.00106574
H       -0.76513807      -0.85508897      -0.94862275       0.00091227       0.00179218      -0.00314666
H        0.88300331      -0.76795877      -0.93297263      -0.00026341      -0.00203270      -0.00349853
H       -0.89671691       0.67740373      -2.79173356       0.00198283      -0.00223801      -0.00055869
H        0.07776172      -0.82025240      -2.85239508       0.00105382       0.00419805       0.00484295
H        0.87323409       0.77957044      -2.77880483      -0.00389241      -0.00612823       0.00103470
14
Properties=species:S:1:pos:R:3:forces:R:3 energy=-4299.563100569093 dipole="0.004931931602455 0.00019579556790862122 0.0004127582242397961" free_energy=-4299.563100569093 pbc="F F F"
C       -0.00804802      -0.28056181       2.30336486      -0.01941333      -2.94963759      -0.37428997
C        0.00630925      -0.07963793       0.71955692      -0.18868536       8.86346487       0.60864630
C        0.01977245      -0.01721079      -0.88363906       0.43812977      -8.87160454      -0.59861645
C        0.02239031       0.18324555      -2.46707775      -0.22966680       2.95494513       0.36949734
H        0.00094073       0.73326628       2.71237795      -0.00063272      -0.00639349      -0.00039196
H        0.86958450      -0.83048625       2.68640358       0.00276448      -0.00058343      -0.00228805
H       -0.90338598      -0.81006162       2.67363856       0.00017302       0.00060279      -0.00419888
H        0.83099157       0.67462550       0.82697921      -0.00262071       0.00097104      -0.00155512
H       -0.81492233       0.68171070       0.82055030       0.00088166       0.00523857      -0.00276886
H       -0.74434197      -0.83438750      -0.99930448       0.00315019       0.00281665       0.00099026
H        0.89673209      -0.71287376      -0.97383987      -0.00580139       0.00363253      -0.00288685
H       -0.89870715       0.65270499      -2.85484261      -0.00086978      -0.00266241       0.00338097
H        0.10711157      -0.82660759      -2.87656967      -0.00022421      -0.00409104       0.00292977
H        0.86857671       0.79119735      -2.83264951       0.00348764       0.00203746       0.00060464
14
Properties=species:S:1:pos:R:3:forces:R:3 energy=-4299.2271330915855 dipole="0.001169481635346089 0.00992736447017766 -0.00033338164265521995" free_energy=-4299.2271330915855 pbc="F F F"
C       -0.08355783       0.00000000      -1.59437832      -3.01399319       0.13296476       0.07084459
C        0.00000000       0.00000000       0.00000000       8.97285153      -0.81942638      -0.22648957
C        0.00000000       0.00000000       1.60446744      -8.92861869       1.24173120       0.22011912
C        0.08323470      -0.00704500       3.19835891       2.96588331      -0.54751496      -0.05923285
H       -0.93664903       0.19573098       3.53504053       0.00112516      -0.00273772       0.00089941
H        0.75691138       0.76655279       3.60767480      -0.00023822       0.00429280      -0.00080970
H        0.41572213      -0.97256020       3.61782183       0.00308872      -0.00509361      -0.00068682
H       -0.60766701       0.94286549       1.65785832      -0.00560652      -0.00349242       0.00083928
H       -0.89873566      -0.67433584       1.67437119       0.00453989      -0.00617447      -0.00156021
H        0.72539720      -0.85845673      -0.06677855       0.00030968       0.00027725       0.00019378
H        0.80270175       0.78294926      -0.05726160      -0.00028580       0.00182805      -0.00030321
H       -0.63620825      -0.86177994      -2.00774515       0.00056325      -0.00350448      -0.00137456
H        0.95507986      -0.04810274      -1.93139086      -0.00195833       0.00168831      -0.00198077
H       -0.55448838       0.90898037      -2.00862068      -0.00250254       0.00133979      -0.00055959
14
Properties=species:S:1:pos:R:3:forces:R:3 energy=-4299.058793159028 dipole="0.001143022774817897 0.010154910670720111 -0.000359840503183412" free_energy=-4299.058793159028 pbc="F F F"
C       -0.05571936       0.00000000      -1.59559377      -3.03363542       0.13021366      -0.02680051
C        0.00000000       0.00000000       0.00000000       9.03507757      -0.80511390      -0.20266434
C        0.00000000       0.00000000       1.60446744      -8.98801973       1.23112566       0.19730609
C        0.05550389      -0.00469786       3.19957399       2.98523306      -0.54776485       0.03859621
H       -0.96981936       0.19659831       3.52064462       0.00590639      -0.00351362       0.00080106
H        0.72162034       0.77048644       3.61845156      -0.00165228       0.00273100      -0.00017364
H        0.38350465      -0.96914304       3.62544168       0.00137862      -0.00108789      -0.00099499
H       -0.61083601       0.94158983       1.65252909      -0.00205964      -0.00284624      -0.00008817
H       -0.89911424      -0.67547083       1.66756197       0.00457853      -0.00317458      -0.00240777
H        0.72840408      -0.85704794      -0.06062293      -0.00590612      -0.00009130       0.00074750
H        0.80314206       0.78387618      -0.05097812      -0.00174262      -0.00393443      -0.00006841
H       -0.60568756      -0.85903040      -2.01857238       0.00282991      -0.00268812      -0.00067818
H        0.98776383      -0.05229306      -1.91678625      -0.00463613       0.00304393      -0.00232585
H       -0.51661297       0.91118019      -2.01637482      -0.00244007      -0.00071542      -0.00164002
14
Properties=species:S:1:pos:R:3:forces:R:3 energy=-4298.889485706754 dipole="0.0010953968258671511 0.010334830922311817 -0.00039159113581724243" free_energy=-4298.889485706754 pbc="F F F"
C       -0.02786392       0.00000000      -1.59632319      -3.04827044       0.13268943      -0.12471966
C        0.00000000       0.00000000       0.00000000       9.08135637      -0.80610064      -0.18050533
C        0.00000000       0.00000000       1.60446744      -9.03471374       1.23307777       0.17592649
C        0.02775617      -0.00234929       3.20030319       2.99980151      -0.54960007       0.13538435
H       -1.00257817       0.19753670       3.50587272       0.00611235      -0.00294000       0.00127523
H        0.68615137       0.77430263       3.62869297      -0.00104257       0.00272472      -0.00048598
H        0.35093627      -0.96555052       3.63274979       0.00120150      -0.00167952      -0.00077579
H       -0.61252782       0.94119659       1.64712597      -0.00013857      -0.00167123      -0.00021342
H       -0.90020527      -0.67544726       1.66066008       0.00328245      -0.00124307      -0.00263894
H        0.72940529      -0.85712251      -0.05447352      -0.00821922      -0.00203522       0.00085477
H        0.80477125       0.78324942      -0.04467156       0.00043715      -0.00623222       0.00022848
H       -0.57440349      -0.85663176      -2.02870154       0.00292411      -0.00355277      -0.00010106
H        1.02014463      -0.05594913      -1.90178009      -0.00477169       0.00358744      -0.00280952
H       -0.47899929       0.91291612      -2.02391868      -0.00319034      -0.00076262      -0.00205095
14
Properties=species:S:1:pos:R:3:forces:R:3 energy=-4298.804521899785 dipole="0.00113243923060662 0.010255454340727242 -0.0004339253126623497" free_energy=-4298.804521899785 pbc="F F F"
C       -0.01393249       0.00000000      -1.59650556      -3.04967509       0.13934519      -0.17348357
C        0.00000000       0.00000000       0.00000000       9.09380787      -0.81802329      -0.16958291
C        0.00000000       0.00000000       1.60446744      -9.05257761       1.23753829       0.16564323
C        0.01387861      -0.00117469       3.20048551       3.00682295      -0.54756122       0.18217054
H       -1.01890121       0.19730919       3.49815809       0.00197033      -0.00090983       0.00306140
H        0.66788993       0.77659561       3.63360035      -0.00100563       0.00305958      -0.00135287
H        0.33504255      -0.96336240       3.63650614       0.00244179      -0.00550226      -0.00119204
H       -0.61319523       0.94108753       1.64422260      -0.00049842      -0.00063521       0.00237115
H       -0.90062921      -0.67547340       1.65693263       0.00120354      -0.00058536      -0.00106434
H        0.72810508      -0.85850208      -0.05123733      -0.00606380      -0.00390674      -0.00015130
H        0.80660264       0.78167761      -0.04136458       0.00501233      -0.00596718      -0.00168460
H       -0.55925681      -0.85481836      -2.03395169       0.00048121      -0.00508921       0.00171649
H        1.03624066      -0.05908240      -1.89353454      -0.00228153       0.00410767      -0.00546105
H       -0.45871183       0.91426997      -2.02776860      -0.00485656       0.00047941      -0.00173228
14
Properties=species:S:1:pos:R:3:forces:R:3 energy=-4298.736436730495 dipole="0.0011483145469235354 0.010107284721769366 -0.00048155126161309543" free_energy=-4298.736436730495 pbc="F F F"
C       -0.00278653       0.00000000      -1.59656392      -3.04834796       0.14853108      -0.21231915
C        0.00000000       0.00000000       0.00000000       9.10512921      -0.83683066      -0.15998666
C        0.00000000       0.00000000       1.60446744      -9.06664670       1.24667006       0.15741969
C        0.00277576      -0.00023494       3.20054385       3.01007460      -0.54640150       0.22070309
H       -1.03197434       0.19713799       3.49203833       0.00160535      -0.00035295       0.00340240
H        0.65322088       0.77856104       3.63724228      -0.00097021       0.00264786      -0.00163797
H        0.32248554      -0.96162618       3.63940217       0.00254015      -0.00671246      -0.00182209
H       -0.61351249       0.94118958       1.64201553      -0.00012881      -0.00016789       0.00380833
H       -0.90119787      -0.67521321       1.65395188       0.00050361       0.00001227      -0.00040601
H        0.72588021      -0.86068465      -0.04863376      -0.00590206      -0.00441477      -0.00092883
H        0.80938278       0.77917660      -0.03869689       0.00626069      -0.00629626      -0.00305233
H       -0.54740248      -0.85338594      -2.03771656      -0.00099586      -0.00479887       0.00265396
H        1.04910699      -0.06190715      -1.88685017      -0.00250628       0.00405259      -0.00738372
H       -0.44219915       0.91543575      -2.03087519      -0.00577361       0.00051403      -0.00126840
14
Properties=species:S:1:pos:R:3:forces:R:3 energy=-4298.727544530912 dipole="0.010181369531248303 0.000386299363711604 -0.00011112721421840664" free_energy=-4298.727544530912 pbc="F F F"
C        0.00000000       0.00000000       2.32334040      -0.06618189      -2.98909835      -0.00181751
C        0.00000000       0.00000000       0.71528038      -0.21471879       8.83257796      -0.00576656
C        0.00000000       0.00000000      -0.91944110       0.58697802      -8.81326130       0.00345891
C        0.00000000       0.00000000      -2.52768412      -0.32581999       2.95981422       0.00190184
H        0.01976174       1.05603454       2.60442561       0.00125386      -0.00131350       0.00053888
H        0.87866482      -0.50806176       2.75701573       0.00491819      -0.00202829       0.00344510
H       -0.89490261      -0.47607590       2.76016947       0.00130915       0.00472221       0.00100199
H        0.83019782       0.75311918       0.74636967       0.00716246       0.00449196       0.00246534
H       -0.81071377       0.77770308       0.75732429      -0.00102561       0.00296305       0.00054363
H       -0.73656337      -0.84817469      -0.96125489      -0.00159851      -0.00472237      -0.00359717
H        0.89521793      -0.67451779      -0.95053670       0.00897836      -0.00215884      -0.00199207
H       -0.93491564       0.39062483      -2.96520995      -0.00089628      -0.00071706       0.00126992
H        0.11779026      -1.04996281      -2.80796115       0.00038287       0.00528392      -0.00121491
H        0.82842662       0.58665137      -2.96166648      -0.00225638       0.00058270       0.00023605
